output file Z88O3.TXT : stresses, computed by Z88R V15.0B
                        ********

isoparametric elements: computing stresses in Gauss points 4 points per axis/element
computing von Mises' stresses for elements 3 + 6 and for Gauss points of
 elements 1,7,8,10,11,12,14 to 24

element # = 1     type =4-n tetrahedron
 XX         YY         ZZ         SIGXX       SIGYY       SIGZZ       TAUXY       TAUYZ       TAUZX       SIGV
  +2.46E+04  +2.33E+05  +1.62E+05  -3.751E+02  +9.545E+03  -8.960E+02  +2.307E-01  -1.210E+03  +3.728E+02  +1.042E+04
  +5.81E+03  +2.27E+05  +1.64E+05  -3.751E+02  +9.545E+03  -8.960E+02  +2.307E-01  -1.210E+03  +3.728E+02  +1.042E+04
  +5.81E+03  +2.49E+05  +1.64E+05  -3.751E+02  +9.545E+03  -8.960E+02  +2.307E-01  -1.210E+03  +3.728E+02  +1.042E+04
  +5.81E+03  +2.37E+05  +1.82E+05  -3.751E+02  +9.545E+03  -8.960E+02  +2.307E-01  -1.210E+03  +3.728E+02  +1.042E+04

element # = 2     type =4-n tetrahedron
 XX         YY         ZZ         SIGXX       SIGYY       SIGZZ       TAUXY       TAUYZ       TAUZX       SIGV
  +2.19E+04  +4.39E+05  +5.76E+04  -2.983E+02  -4.377E+03  -4.083E+02  +2.606E+02  -2.842E+03  -9.583E+01  +6.376E+03
  +4.46E+04  +4.15E+05  +5.35E+04  -2.983E+02  -4.377E+03  -4.083E+02  +2.606E+02  -2.842E+03  -9.583E+01  +6.376E+03
  +4.22E+04  +4.19E+05  +8.00E+04  -2.983E+02  -4.377E+03  -4.083E+02  +2.606E+02  -2.842E+03  -9.583E+01  +6.376E+03
  +4.97E+04  +4.47E+05  +6.36E+04  -2.983E+02  -4.377E+03  -4.083E+02  +2.606E+02  -2.842E+03  -9.583E+01  +6.376E+03

element # = 3     type =4-n tetrahedron
 XX         YY         ZZ         SIGXX       SIGYY       SIGZZ       TAUXY       TAUYZ       TAUZX       SIGV
  +1.46E+05  +9.55E+05  +7.36E+04  +4.526E+01  +3.911E+01  -1.238E+02  +7.920E+00  -1.274E+02  +5.498E+00  +2.767E+02
  +1.74E+05  +9.61E+05  +9.54E+04  +4.526E+01  +3.911E+01  -1.238E+02  +7.920E+00  -1.274E+02  +5.498E+00  +2.767E+02
  +1.36E+05  +9.53E+05  +1.02E+05  +4.526E+01  +3.911E+01  -1.238E+02  +7.920E+00  -1.274E+02  +5.498E+00  +2.767E+02
  +1.55E+05  +9.79E+05  +9.54E+04  +4.526E+01  +3.911E+01  -1.238E+02  +7.920E+00  -1.274E+02  +5.498E+00  +2.767E+02

element # = 4     type =4-n tetrahedron
 XX         YY         ZZ         SIGXX       SIGYY       SIGZZ       TAUXY       TAUYZ       TAUZX       SIGV
  +5.32E+04  +5.15E+04  +1.27E+05  +1.246E+02  +5.230E+03  -1.109E+03  +3.356E+01  -4.770E+03  +4.555E+02  +1.014E+04
  +7.24E+04  +5.65E+04  +1.40E+05  +1.246E+02  +5.230E+03  -1.109E+03  +3.356E+01  -4.770E+03  +4.555E+02  +1.014E+04
  +5.93E+04  +7.62E+04  +1.23E+05  +1.246E+02  +5.230E+03  -1.109E+03  +3.356E+01  -4.770E+03  +4.555E+02  +1.014E+04
  +8.04E+04  +5.38E+04  +1.14E+05  +1.246E+02  +5.230E+03  -1.109E+03  +3.356E+01  -4.770E+03  +4.555E+02  +1.014E+04

element # = 5     type =4-n tetrahedron
 XX         YY         ZZ         SIGXX       SIGYY       SIGZZ       TAUXY       TAUYZ       TAUZX       SIGV
  +3.08E+04  +2.62E+05  +1.66E+05  -2.269E+02  +1.108E+04  -9.702E+02  +3.838E+02  -1.226E+03  -2.768E+01  +1.191E+04
  +3.05E+04  +2.41E+05  +1.62E+05  -2.269E+02  +1.108E+04  -9.702E+02  +3.838E+02  -1.226E+03  -2.768E+01  +1.191E+04
  +1.17E+04  +2.57E+05  +1.64E+05  -2.269E+02  +1.108E+04  -9.702E+02  +3.838E+02  -1.226E+03  -2.768E+01  +1.191E+04
  +1.17E+04  +2.45E+05  +1.83E+05  -2.269E+02  +1.108E+04  -9.702E+02  +3.838E+02  -1.226E+03  -2.768E+01  +1.191E+04

element # = 6     type =4-n tetrahedron
 XX         YY         ZZ         SIGXX       SIGYY       SIGZZ       TAUXY       TAUYZ       TAUZX       SIGV
  +6.65E+04  +6.41E+05  +4.61E+04  -6.075E-01  -2.028E+03  +2.275E+02  -6.393E+01  -5.671E+02  +7.870E+01  +2.371E+03
  +5.32E+04  +6.54E+05  +3.33E+04  -6.075E-01  -2.028E+03  +2.275E+02  -6.393E+01  -5.671E+02  +7.870E+01  +2.371E+03
  +5.80E+04  +6.47E+05  +1.51E+04  -6.075E-01  -2.028E+03  +2.275E+02  -6.393E+01  -5.671E+02  +7.870E+01  +2.371E+03
  +8.04E+04  +6.58E+05  +1.51E+04  -6.075E-01  -2.028E+03  +2.275E+02  -6.393E+01  -5.671E+02  +7.870E+01  +2.371E+03

element # = 7     type =4-n tetrahedron
 XX         YY         ZZ         SIGXX       SIGYY       SIGZZ       TAUXY       TAUYZ       TAUZX       SIGV
  +1.92E+05  +6.67E+05  +8.02E+04  -2.633E+02  -1.725E+03  -4.741E+02  -1.423E+02  -1.181E+03  -2.469E+02  +2.509E+03
  +1.92E+05  +6.57E+05  +5.78E+04  -2.633E+02  -1.725E+03  -4.741E+02  -1.423E+02  -1.181E+03  -2.469E+02  +2.509E+03
  +1.92E+05  +6.78E+05  +5.78E+04  -2.633E+02  -1.725E+03  -4.741E+02  -1.423E+02  -1.181E+03  -2.469E+02  +2.509E+03
  +1.67E+05  +6.68E+05  +6.07E+04  -2.633E+02  -1.725E+03  -4.741E+02  -1.423E+02  -1.181E+03  -2.469E+02  +2.509E+03

element # = 8     type =4-n tetrahedron
 XX         YY         ZZ         SIGXX       SIGYY       SIGZZ       TAUXY       TAUYZ       TAUZX       SIGV
  +1.61E+05  +9.85E+05  +2.15E+04  +5.959E+01  +4.445E+00  -2.134E+01  +7.470E+00  -3.018E+01  +9.201E+00  +9.100E+01
  +1.79E+05  +9.60E+05  +4.49E+04  +5.959E+01  +4.445E+00  -2.134E+01  +7.470E+00  -3.018E+01  +9.201E+00  +9.100E+01
  +1.51E+05  +9.61E+05  +4.44E+04  +5.959E+01  +4.445E+00  -2.134E+01  +7.470E+00  -3.018E+01  +9.201E+00  +9.100E+01
  +1.56E+05  +9.85E+05  +4.46E+04  +5.959E+01  +4.445E+00  -2.134E+01  +7.470E+00  -3.018E+01  +9.201E+00  +9.100E+01

element # = 9     type =4-n tetrahedron
 XX         YY         ZZ         SIGXX       SIGYY       SIGZZ       TAUXY       TAUYZ       TAUZX       SIGV
  +9.47E+04  +7.98E+05  +5.66E+04  +8.929E+01  -4.132E+02  +2.078E+01  +4.401E+00  -4.272E+02  -3.234E+01  +8.794E+02
  +1.06E+05  +8.07E+05  +2.72E+04  +8.929E+01  -4.132E+02  +2.078E+01  +4.401E+00  -4.272E+02  -3.234E+01  +8.794E+02
  +1.20E+05  +7.83E+05  +5.81E+04  +8.929E+01  -4.132E+02  +2.078E+01  +4.401E+00  -4.272E+02  -3.234E+01  +8.794E+02
  +1.23E+05  +8.24E+05  +5.50E+04  +8.929E+01  -4.132E+02  +2.078E+01  +4.401E+00  -4.272E+02  -3.234E+01  +8.794E+02

element # = 10     type =4-n tetrahedron
 XX         YY         ZZ         SIGXX       SIGYY       SIGZZ       TAUXY       TAUYZ       TAUZX       SIGV
  +1.60E+05  +5.72E+05  +1.59E+05  -5.088E+01  +3.983E+03  -3.684E+02  +8.449E+01  -9.234E+02  -3.821E+01  +4.498E+03
  +1.85E+05  +5.77E+05  +1.85E+05  -5.088E+01  +3.983E+03  -3.684E+02  +8.449E+01  -9.234E+02  -3.821E+01  +4.498E+03
  +1.63E+05  +5.87E+05  +1.85E+05  -5.088E+01  +3.983E+03  -3.684E+02  +8.449E+01  -9.234E+02  -3.821E+01  +4.498E+03
  +1.85E+05  +5.87E+05  +1.63E+05  -5.088E+01  +3.983E+03  -3.684E+02  +8.449E+01  -9.234E+02  -3.821E+01  +4.498E+03

element # = 11     type =4-n tetrahedron
 XX         YY         ZZ         SIGXX       SIGYY       SIGZZ       TAUXY       TAUYZ       TAUZX       SIGV
  +1.15E+05  +5.79E+05  +4.74E+04  +7.472E+02  -1.687E+03  +1.264E+03  +1.553E+02  -9.675E+02  +1.834E+02  +3.230E+03
  +9.39E+04  +5.63E+05  +6.05E+04  +7.472E+02  -1.687E+03  +1.264E+03  +1.553E+02  -9.675E+02  +1.834E+02  +3.230E+03
  +9.71E+04  +5.73E+05  +2.39E+04  +7.472E+02  -1.687E+03  +1.264E+03  +1.553E+02  -9.675E+02  +1.834E+02  +3.230E+03
  +7.33E+04  +5.84E+05  +4.13E+04  +7.472E+02  -1.687E+03  +1.264E+03  +1.553E+02  -9.675E+02  +1.834E+02  +3.230E+03

element # = 12     type =4-n tetrahedron
 XX         YY         ZZ         SIGXX       SIGYY       SIGZZ       TAUXY       TAUYZ       TAUZX       SIGV
  +5.31E+04  +7.11E+05  +1.78E+05  -2.675E+02  +2.358E+03  -6.983E+02  -1.795E+02  -5.085E+02  +5.828E+01  +3.015E+03
  +5.60E+04  +7.03E+05  +1.95E+05  -2.675E+02  +2.358E+03  -6.983E+02  -1.795E+02  -5.085E+02  +5.828E+01  +3.015E+03
  +5.61E+04  +7.25E+05  +1.95E+05  -2.675E+02  +2.358E+03  -6.983E+02  -1.795E+02  -5.085E+02  +5.828E+01  +3.015E+03
  +7.84E+04  +7.14E+05  +1.95E+05  -2.675E+02  +2.358E+03  -6.983E+02  -1.795E+02  -5.085E+02  +5.828E+01  +3.015E+03

element # = 13     type =4-n tetrahedron
 XX         YY         ZZ         SIGXX       SIGYY       SIGZZ       TAUXY       TAUYZ       TAUZX       SIGV
  +6.98E+03  +1.03E+05  +1.10E+05  -2.756E+03  -2.040E+03  -1.751E+03  -1.138E+03  -3.339E+03  +1.323E+03  +6.586E+03
  +6.98E+03  +1.14E+05  +1.32E+05  -2.756E+03  -2.040E+03  -1.751E+03  -1.138E+03  -3.339E+03  +1.323E+03  +6.586E+03
  +6.98E+03  +1.28E+05  +1.10E+05  -2.756E+03  -2.040E+03  -1.751E+03  -1.138E+03  -3.339E+03  +1.323E+03  +6.586E+03
  +2.96E+04  +1.06E+05  +1.19E+05  -2.756E+03  -2.040E+03  -1.751E+03  -1.138E+03  -3.339E+03  +1.323E+03  +6.586E+03

element # = 14     type =4-n tetrahedron
 XX         YY         ZZ         SIGXX       SIGYY       SIGZZ       TAUXY       TAUYZ       TAUZX       SIGV
  +1.85E+04  +1.94E+05  +1.30E+05  +1.791E+03  +9.716E+03  -2.401E+02  +6.865E+02  -4.005E+03  -4.993E+02  +1.155E+04
  +3.73E+04  +2.10E+05  +1.44E+05  +1.791E+03  +9.716E+03  -2.401E+02  +6.865E+02  -4.005E+03  -4.993E+02  +1.155E+04
  +4.13E+04  +1.86E+05  +1.23E+05  +1.791E+03  +9.716E+03  -2.401E+02  +6.865E+02  -4.005E+03  -4.993E+02  +1.155E+04
  +3.66E+04  +1.91E+05  +1.49E+05  +1.791E+03  +9.716E+03  -2.401E+02  +6.865E+02  -4.005E+03  -4.993E+02  +1.155E+04

element # = 15     type =4-n tetrahedron
 XX         YY         ZZ         SIGXX       SIGYY       SIGZZ       TAUXY       TAUYZ       TAUZX       SIGV
  +2.74E+04  +6.05E+05  +3.66E+04  +3.651E+01  -2.580E+03  +1.168E+02  +1.090E+02  -6.771E+02  -3.909E+00  +2.911E+03
  +6.46E+03  +6.16E+05  +1.92E+04  +3.651E+01  -2.580E+03  +1.168E+02  +1.090E+02  -6.771E+02  -3.909E+00  +2.911E+03
  +6.46E+03  +6.26E+05  +4.16E+04  +3.651E+01  -2.580E+03  +1.168E+02  +1.090E+02  -6.771E+02  -3.909E+00  +2.911E+03
  +6.46E+03  +6.05E+05  +4.16E+04  +3.651E+01  -2.580E+03  +1.168E+02  +1.090E+02  -6.771E+02  -3.909E+00  +2.911E+03

element # = 16     type =4-n tetrahedron
 XX         YY         ZZ         SIGXX       SIGYY       SIGZZ       TAUXY       TAUYZ       TAUZX       SIGV
  +8.88E+04  +6.31E+05  +9.55E+03  -4.021E+02  -4.095E+03  -5.292E+02  -1.035E+02  -8.027E+02  -2.907E+01  +3.892E+03
  +7.49E+04  +6.35E+05  +4.05E+04  -4.021E+02  -4.095E+03  -5.292E+02  -1.035E+02  -8.027E+02  -2.907E+01  +3.892E+03
  +6.64E+04  +6.41E+05  +9.55E+03  -4.021E+02  -4.095E+03  -5.292E+02  -1.035E+02  -8.027E+02  -2.907E+01  +3.892E+03
  +8.88E+04  +6.52E+05  +9.55E+03  -4.021E+02  -4.095E+03  -5.292E+02  -1.035E+02  -8.027E+02  -2.907E+01  +3.892E+03

element # = 17     type =4-n tetrahedron
 XX         YY         ZZ         SIGXX       SIGYY       SIGZZ       TAUXY       TAUYZ       TAUZX       SIGV
  +1.78E+05  +8.02E+05  +3.79E+04  -4.256E+01  -1.125E+03  -1.757E+02  -1.130E+02  -3.110E+02  +5.065E+01  +1.175E+03
  +1.55E+05  +8.24E+05  +1.55E+04  -4.256E+01  -1.125E+03  -1.757E+02  -1.130E+02  -3.110E+02  +5.065E+01  +1.175E+03
  +1.50E+05  +8.30E+05  +4.33E+04  -4.256E+01  -1.125E+03  -1.757E+02  -1.130E+02  -3.110E+02  +5.065E+01  +1.175E+03
  +1.55E+05  +8.02E+05  +1.55E+04  -4.256E+01  -1.125E+03  -1.757E+02  -1.130E+02  -3.110E+02  +5.065E+01  +1.175E+03

element # = 18     type =4-n tetrahedron
 XX         YY         ZZ         SIGXX       SIGYY       SIGZZ       TAUXY       TAUYZ       TAUZX       SIGV
  +5.41E+03  +6.55E+05  +4.18E+04  +2.135E+02  -1.801E+03  +2.057E+02  +6.232E+01  -5.988E+02  +8.658E+01  +2.270E+03
  +5.41E+03  +6.76E+05  +4.18E+04  +2.135E+02  -1.801E+03  +2.057E+02  +6.232E+01  -5.988E+02  +8.658E+01  +2.270E+03
  +5.41E+03  +6.66E+05  +1.94E+04  +2.135E+02  -1.801E+03  +2.057E+02  +6.232E+01  -5.988E+02  +8.658E+01  +2.270E+03
  +2.29E+04  +6.63E+05  +3.75E+04  +2.135E+02  -1.801E+03  +2.057E+02  +6.232E+01  -5.988E+02  +8.658E+01  +2.270E+03

element # = 19     type =4-n tetrahedron
 XX         YY         ZZ         SIGXX       SIGYY       SIGZZ       TAUXY       TAUYZ       TAUZX       SIGV
  +1.10E+05  +7.65E+05  +9.77E+04  +1.923E+02  +8.494E+02  -2.163E+02  +3.531E+00  -8.995E+02  -1.071E+02  +1.825E+03
  +7.92E+04  +7.88E+05  +1.34E+05  +1.923E+02  +8.494E+02  -2.163E+02  +3.531E+00  -8.995E+02  -1.071E+02  +1.825E+03
  +1.08E+05  +7.63E+05  +1.30E+05  +1.923E+02  +8.494E+02  -2.163E+02  +3.531E+00  -8.995E+02  -1.071E+02  +1.825E+03
  +7.09E+04  +7.67E+05  +1.22E+05  +1.923E+02  +8.494E+02  -2.163E+02  +3.531E+00  -8.995E+02  -1.071E+02  +1.825E+03

element # = 20     type =4-n tetrahedron
 XX         YY         ZZ         SIGXX       SIGYY       SIGZZ       TAUXY       TAUYZ       TAUZX       SIGV
  +8.14E+03  +6.76E+05  +1.58E+05  -2.047E+02  +1.599E+03  -6.355E+02  -9.996E+00  -6.138E+02  +6.442E+01  +2.315E+03
  +3.45E+04  +6.63E+05  +1.62E+05  -2.047E+02  +1.599E+03  -6.355E+02  -9.996E+00  -6.138E+02  +6.442E+01  +2.315E+03
  +8.14E+03  +6.55E+05  +1.58E+05  -2.047E+02  +1.599E+03  -6.355E+02  -9.996E+00  -6.138E+02  +6.442E+01  +2.315E+03
  +8.14E+03  +6.66E+05  +1.80E+05  -2.047E+02  +1.599E+03  -6.355E+02  -9.996E+00  -6.138E+02  +6.442E+01  +2.315E+03

element # = 21     type =4-n tetrahedron
 XX         YY         ZZ         SIGXX       SIGYY       SIGZZ       TAUXY       TAUYZ       TAUZX       SIGV
  +1.86E+05  +5.79E+05  +1.20E+05  +6.206E+02  +3.220E+03  +5.267E+02  +8.262E+01  -1.495E+03  -1.746E+02  +3.719E+03
  +1.61E+05  +5.75E+05  +1.39E+05  +6.206E+02  +3.220E+03  +5.267E+02  +8.262E+01  -1.495E+03  -1.746E+02  +3.719E+03
  +1.64E+05  +5.99E+05  +1.44E+05  +6.206E+02  +3.220E+03  +5.267E+02  +8.262E+01  -1.495E+03  -1.746E+02  +3.719E+03
  +1.86E+05  +5.90E+05  +1.42E+05  +6.206E+02  +3.220E+03  +5.267E+02  +8.262E+01  -1.495E+03  -1.746E+02  +3.719E+03

element # = 22     type =4-n tetrahedron
 XX         YY         ZZ         SIGXX       SIGYY       SIGZZ       TAUXY       TAUYZ       TAUZX       SIGV
  +1.84E+05  +8.09E+05  +4.48E+04  -3.264E+01  -5.560E+02  +3.466E-01  +1.495E+00  -3.584E+02  +9.607E+00  +8.233E+02
  +1.62E+05  +8.31E+05  +2.24E+04  -3.264E+01  -5.560E+02  +3.466E-01  +1.495E+00  -3.584E+02  +9.607E+00  +8.233E+02
  +1.84E+05  +8.31E+05  +4.49E+04  -3.264E+01  -5.560E+02  +3.466E-01  +1.495E+00  -3.584E+02  +9.607E+00  +8.233E+02
  +1.57E+05  +8.37E+05  +5.02E+04  -3.264E+01  -5.560E+02  +3.466E-01  +1.495E+00  -3.584E+02  +9.607E+00  +8.233E+02

element # = 23     type =4-n tetrahedron
 XX         YY         ZZ         SIGXX       SIGYY       SIGZZ       TAUXY       TAUYZ       TAUZX       SIGV
  +5.93E+03  +5.60E+05  +1.43E+05  +4.095E+02  +3.225E+03  +7.205E+00  -2.194E+01  -1.508E+03  +2.911E+02  +4.037E+03
  +5.93E+03  +5.71E+05  +1.20E+05  +4.095E+02  +3.225E+03  +7.205E+00  -2.194E+01  -1.508E+03  +2.911E+02  +4.037E+03
  +2.51E+04  +5.70E+05  +1.40E+05  +4.095E+02  +3.225E+03  +7.205E+00  -2.194E+01  -1.508E+03  +2.911E+02  +4.037E+03
  +5.93E+03  +5.81E+05  +1.42E+05  +4.095E+02  +3.225E+03  +7.205E+00  -2.194E+01  -1.508E+03  +2.911E+02  +4.037E+03

element # = 24     type =4-n tetrahedron
 XX         YY         ZZ         SIGXX       SIGYY       SIGZZ       TAUXY       TAUYZ       TAUZX       SIGV
  +5.97E+03  +7.03E+05  +8.56E+04  +4.499E+02  +8.249E+01  +6.489E+01  -1.416E+02  -1.173E+03  +1.144E+02  +2.090E+03
  +5.97E+03  +6.93E+05  +6.33E+04  +4.499E+02  +8.249E+01  +6.489E+01  -1.416E+02  -1.173E+03  +1.144E+02  +2.090E+03
  +5.97E+03  +6.82E+05  +8.57E+04  +4.499E+02  +8.249E+01  +6.489E+01  -1.416E+02  -1.173E+03  +1.144E+02  +2.090E+03
  +2.53E+04  +6.99E+05  +6.15E+04  +4.499E+02  +8.249E+01  +6.489E+01  -1.416E+02  -1.173E+03  +1.144E+02  +2.090E+03

element # = 25     type =4-n tetrahedron
 XX         YY         ZZ         SIGXX       SIGYY       SIGZZ       TAUXY       TAUYZ       TAUZX       SIGV
  +4.68E+04  +6.54E+05  +1.46E+05  -3.843E+02  +6.478E+02  -3.685E+02  +1.814E+02  -8.617E+02  -1.440E+02  +1.854E+03
  +4.29E+04  +6.64E+05  +1.25E+05  -3.843E+02  +6.478E+02  -3.685E+02  +1.814E+02  -8.617E+02  -1.440E+02  +1.854E+03
  +2.04E+04  +6.47E+05  +1.42E+05  -3.843E+02  +6.478E+02  -3.685E+02  +1.814E+02  -8.617E+02  -1.440E+02  +1.854E+03
  +3.77E+04  +6.36E+05  +1.30E+05  -3.843E+02  +6.478E+02  -3.685E+02  +1.814E+02  -8.617E+02  -1.440E+02  +1.854E+03

element # = 26     type =4-n tetrahedron
 XX         YY         ZZ         SIGXX       SIGYY       SIGZZ       TAUXY       TAUYZ       TAUZX       SIGV
  +1.79E+05  +4.86E+05  +1.64E+05  +9.471E+02  +8.381E+03  -3.663E+02  -1.217E+03  -1.529E+03  -3.504E+02  +8.865E+03
  +1.57E+05  +4.65E+05  +1.87E+05  +9.471E+02  +8.381E+03  -3.663E+02  -1.217E+03  -1.529E+03  -3.504E+02  +8.865E+03
  +1.57E+05  +4.62E+05  +1.65E+05  +9.471E+02  +8.381E+03  -3.663E+02  -1.217E+03  -1.529E+03  -3.504E+02  +8.865E+03
  +1.57E+05  +4.86E+05  +1.87E+05  +9.471E+02  +8.381E+03  -3.663E+02  -1.217E+03  -1.529E+03  -3.504E+02  +8.865E+03

element # = 27     type =4-n tetrahedron
 XX         YY         ZZ         SIGXX       SIGYY       SIGZZ       TAUXY       TAUYZ       TAUZX       SIGV
  +4.12E+04  +6.05E+05  +2.27E+04  -1.751E+02  -4.443E+03  +2.897E+02  +2.326E+02  -8.741E+02  -1.913E+02  +4.794E+03
  +2.03E+04  +6.16E+05  +5.36E+03  -1.751E+02  -4.443E+03  +2.897E+02  +2.326E+02  -8.741E+02  -1.913E+02  +4.794E+03
  +4.26E+04  +6.05E+05  +5.36E+03  -1.751E+02  -4.443E+03  +2.897E+02  +2.326E+02  -8.741E+02  -1.913E+02  +4.794E+03
  +4.27E+04  +6.26E+05  +5.36E+03  -1.751E+02  -4.443E+03  +2.897E+02  +2.326E+02  -8.741E+02  -1.913E+02  +4.794E+03

element # = 28     type =4-n tetrahedron
 XX         YY         ZZ         SIGXX       SIGYY       SIGZZ       TAUXY       TAUYZ       TAUZX       SIGV
  +8.47E+04  +6.93E+04  +1.41E+05  +5.136E+02  +7.399E+03  -1.331E+03  +9.197E+02  -5.994E+03  -1.240E+03  +1.336E+04
  +9.27E+04  +6.67E+04  +1.16E+05  +5.136E+02  +7.399E+03  -1.331E+03  +9.197E+02  -5.994E+03  -1.240E+03  +1.336E+04
  +1.05E+05  +1.06E+05  +1.33E+05  +5.136E+02  +7.399E+03  -1.331E+03  +9.197E+02  -5.994E+03  -1.240E+03  +1.336E+04
  +7.15E+04  +8.90E+04  +1.25E+05  +5.136E+02  +7.399E+03  -1.331E+03  +9.197E+02  -5.994E+03  -1.240E+03  +1.336E+04

element # = 29     type =4-n tetrahedron
 XX         YY         ZZ         SIGXX       SIGYY       SIGZZ       TAUXY       TAUYZ       TAUZX       SIGV
  +1.05E+05  +6.78E+05  +1.80E+04  -3.307E+02  -3.138E+03  -3.505E+02  -3.122E+00  -6.094E+02  +1.930E+02  +3.008E+03
  +1.02E+05  +6.90E+05  +5.10E+04  -3.307E+02  -3.138E+03  -3.505E+02  -3.122E+00  -6.094E+02  +1.930E+02  +3.008E+03
  +1.05E+05  +6.99E+05  +1.80E+04  -3.307E+02  -3.138E+03  -3.505E+02  -3.122E+00  -6.094E+02  +1.930E+02  +3.008E+03
  +1.24E+05  +6.79E+05  +4.32E+04  -3.307E+02  -3.138E+03  -3.505E+02  -3.122E+00  -6.094E+02  +1.930E+02  +3.008E+03

element # = 30     type =4-n tetrahedron
 XX         YY         ZZ         SIGXX       SIGYY       SIGZZ       TAUXY       TAUYZ       TAUZX       SIGV
  +1.82E+05  +7.95E+05  +6.13E+04  -1.645E+01  -5.541E+02  -2.177E+02  +5.898E+00  -6.208E+02  -5.342E+00  +1.174E+03
  +1.82E+05  +8.06E+05  +8.36E+04  -1.645E+01  -5.541E+02  -2.177E+02  +5.898E+00  -6.208E+02  -5.342E+00  +1.174E+03
  +1.51E+05  +7.82E+05  +6.97E+04  -1.645E+01  -5.541E+02  -2.177E+02  +5.898E+00  -6.208E+02  -5.342E+00  +1.174E+03
  +1.54E+05  +8.23E+05  +6.66E+04  -1.645E+01  -5.541E+02  -2.177E+02  +5.898E+00  -6.208E+02  -5.342E+00  +1.174E+03

element # = 31     type =4-n tetrahedron
 XX         YY         ZZ         SIGXX       SIGYY       SIGZZ       TAUXY       TAUYZ       TAUZX       SIGV
  +2.56E+04  +9.64E+05  +1.33E+05  -2.314E+01  +6.275E+01  -3.956E+02  +1.287E+01  -9.426E+01  -3.520E+01  +4.571E+02
  +6.05E+03  +9.61E+05  +1.42E+05  -2.314E+01  +6.275E+01  -3.956E+02  +1.287E+01  -9.426E+01  -3.520E+01  +4.571E+02
  +6.05E+03  +9.86E+05  +1.30E+05  -2.314E+01  +6.275E+01  -3.956E+02  +1.287E+01  -9.426E+01  -3.520E+01  +4.571E+02
  +6.05E+03  +9.86E+05  +1.48E+05  -2.314E+01  +6.275E+01  -3.956E+02  +1.287E+01  -9.426E+01  -3.520E+01  +4.571E+02

element # = 32     type =4-n tetrahedron
 XX         YY         ZZ         SIGXX       SIGYY       SIGZZ       TAUXY       TAUYZ       TAUZX       SIGV
  +5.34E+04  +9.46E+05  +1.11E+05  -5.626E+01  -1.076E+02  -3.329E+02  -3.934E-01  -2.168E+02  -2.402E+00  +4.538E+02
  +5.39E+04  +9.49E+05  +8.96E+04  -5.626E+01  -1.076E+02  -3.329E+02  -3.934E-01  -2.168E+02  -2.402E+00  +4.538E+02
  +5.19E+04  +9.29E+05  +9.12E+04  -5.626E+01  -1.076E+02  -3.329E+02  -3.934E-01  -2.168E+02  -2.402E+00  +4.538E+02
  +8.52E+04  +9.42E+05  +1.07E+05  -5.626E+01  -1.076E+02  -3.329E+02  -3.934E-01  -2.168E+02  -2.402E+00  +4.538E+02

element # = 33     type =4-n tetrahedron
 XX         YY         ZZ         SIGXX       SIGYY       SIGZZ       TAUXY       TAUYZ       TAUZX       SIGV
  +6.26E+03  +4.03E+05  +1.37E+05  +8.205E+02  +2.731E+03  -1.293E+02  +1.809E+02  -1.414E+03  +3.142E+02  +3.572E+03
  +6.26E+03  +4.10E+05  +1.12E+05  +8.205E+02  +2.731E+03  -1.293E+02  +1.809E+02  -1.414E+03  +3.142E+02  +3.572E+03
  +6.26E+03  +3.92E+05  +1.23E+05  +8.205E+02  +2.731E+03  -1.293E+02  +1.809E+02  -1.414E+03  +3.142E+02  +3.572E+03
  +2.65E+04  +4.04E+05  +1.12E+05  +8.205E+02  +2.731E+03  -1.293E+02  +1.809E+02  -1.414E+03  +3.142E+02  +3.572E+03

element # = 34     type =4-n tetrahedron
 XX         YY         ZZ         SIGXX       SIGYY       SIGZZ       TAUXY       TAUYZ       TAUZX       SIGV
  +1.91E+05  +7.94E+05  +8.88E+04  +2.907E+02  +3.273E+02  +3.678E+01  -1.230E+02  -6.798E+02  -6.051E+01  +1.232E+03
  +1.91E+05  +7.83E+05  +6.65E+04  +2.907E+02  +3.273E+02  +3.678E+01  -1.230E+02  -6.798E+02  -6.051E+01  +1.232E+03
  +1.60E+05  +7.71E+05  +7.50E+04  +2.907E+02  +3.273E+02  +3.678E+01  -1.230E+02  -6.798E+02  -6.051E+01  +1.232E+03
  +1.91E+05  +7.73E+05  +8.88E+04  +2.907E+02  +3.273E+02  +3.678E+01  -1.230E+02  -6.798E+02  -6.051E+01  +1.232E+03

element # = 35     type =4-n tetrahedron
 XX         YY         ZZ         SIGXX       SIGYY       SIGZZ       TAUXY       TAUYZ       TAUZX       SIGV
  +3.51E+04  +1.98E+04  +1.69E+05  +9.493E+03  +2.215E+04  +9.493E+03  +1.858E+03  -4.858E+03  +0.000E+00  +1.554E+04
  +1.80E+04  +4.68E+03  +1.65E+05  +9.493E+03  +2.215E+04  +9.493E+03  +1.858E+03  -4.858E+03  +0.000E+00  +1.554E+04
  +3.58E+04  +4.68E+03  +1.83E+05  +9.493E+03  +2.215E+04  +9.493E+03  +1.858E+03  -4.858E+03  +0.000E+00  +1.554E+04
  +4.11E+04  +4.68E+03  +1.60E+05  +9.493E+03  +2.215E+04  +9.493E+03  +1.858E+03  -4.858E+03  +0.000E+00  +1.554E+04

element # = 36     type =4-n tetrahedron
 XX         YY         ZZ         SIGXX       SIGYY       SIGZZ       TAUXY       TAUYZ       TAUZX       SIGV
  +1.76E+05  +7.76E+05  +1.63E+05  +1.713E+02  +1.783E+03  -4.227E+02  -2.018E+01  -3.345E+02  -5.531E+01  +2.063E+03
  +1.54E+05  +7.54E+05  +1.85E+05  +1.713E+02  +1.783E+03  -4.227E+02  -2.018E+01  -3.345E+02  -5.531E+01  +2.063E+03
  +1.43E+05  +7.61E+05  +1.59E+05  +1.713E+02  +1.783E+03  -4.227E+02  -2.018E+01  -3.345E+02  -5.531E+01  +2.063E+03
  +1.54E+05  +7.76E+05  +1.85E+05  +1.713E+02  +1.783E+03  -4.227E+02  -2.018E+01  -3.345E+02  -5.531E+01  +2.063E+03

element # = 37     type =4-n tetrahedron
 XX         YY         ZZ         SIGXX       SIGYY       SIGZZ       TAUXY       TAUYZ       TAUZX       SIGV
  +4.80E+04  +3.69E+05  +1.26E+05  -1.511E+02  +2.907E+03  -5.546E+02  -2.454E+02  -1.249E+03  +2.325E+02  +3.971E+03
  +5.57E+04  +3.81E+05  +1.41E+05  -1.511E+02  +2.907E+03  -5.546E+02  -2.454E+02  -1.249E+03  +2.325E+02  +3.971E+03
  +5.19E+04  +3.90E+05  +1.16E+05  -1.511E+02  +2.907E+03  -5.546E+02  -2.454E+02  -1.249E+03  +2.325E+02  +3.971E+03
  +7.35E+04  +3.66E+05  +1.29E+05  -1.511E+02  +2.907E+03  -5.546E+02  -2.454E+02  -1.249E+03  +2.325E+02  +3.971E+03

element # = 38     type =4-n tetrahedron
 XX         YY         ZZ         SIGXX       SIGYY       SIGZZ       TAUXY       TAUYZ       TAUZX       SIGV
  +1.89E+04  +3.09E+05  +1.66E+05  +5.900E+02  +1.048E+04  +6.183E+02  -2.928E+02  -7.311E+02  -8.862E+02  +1.008E+04
  +4.12E+04  +3.08E+05  +1.84E+05  +5.900E+02  +1.048E+04  +6.183E+02  -2.928E+02  -7.311E+02  -8.862E+02  +1.008E+04
  +3.84E+04  +3.17E+05  +1.65E+05  +5.900E+02  +1.048E+04  +6.183E+02  -2.928E+02  -7.311E+02  -8.862E+02  +1.008E+04
  +3.80E+04  +2.93E+05  +1.67E+05  +5.900E+02  +1.048E+04  +6.183E+02  -2.928E+02  -7.311E+02  -8.862E+02  +1.008E+04

element # = 39     type =4-n tetrahedron
 XX         YY         ZZ         SIGXX       SIGYY       SIGZZ       TAUXY       TAUYZ       TAUZX       SIGV
  +6.59E+04  +1.50E+05  +1.75E+05  +1.311E+03  +2.157E+04  +2.997E+02  -5.342E+02  -1.799E+03  -4.258E+01  +2.103E+04
  +6.44E+04  +1.61E+05  +1.94E+05  +1.311E+03  +2.157E+04  +2.997E+02  -5.342E+02  -1.799E+03  -4.258E+01  +2.103E+04
  +8.67E+04  +1.71E+05  +1.94E+05  +1.311E+03  +2.157E+04  +2.997E+02  -5.342E+02  -1.799E+03  -4.258E+01  +2.103E+04
  +8.67E+04  +1.49E+05  +1.94E+05  +1.311E+03  +2.157E+04  +2.997E+02  -5.342E+02  -1.799E+03  -4.258E+01  +2.103E+04

element # = 40     type =4-n tetrahedron
 XX         YY         ZZ         SIGXX       SIGYY       SIGZZ       TAUXY       TAUYZ       TAUZX       SIGV
  +1.42E+05  +2.26E+05  +1.90E+05  +1.667E+03  +1.969E+04  +1.837E+03  -2.914E+02  -1.726E+03  -5.989E+02  +1.822E+04
  +1.42E+05  +2.47E+05  +1.90E+05  +1.667E+03  +1.969E+04  +1.837E+03  -2.914E+02  -1.726E+03  -5.989E+02  +1.822E+04
  +1.20E+05  +2.36E+05  +1.90E+05  +1.667E+03  +1.969E+04  +1.837E+03  -2.914E+02  -1.726E+03  -5.989E+02  +1.822E+04
  +1.38E+05  +2.34E+05  +1.58E+05  +1.667E+03  +1.969E+04  +1.837E+03  -2.914E+02  -1.726E+03  -5.989E+02  +1.822E+04

element # = 41     type =4-n tetrahedron
 XX         YY         ZZ         SIGXX       SIGYY       SIGZZ       TAUXY       TAUYZ       TAUZX       SIGV
  +1.64E+05  +4.48E+05  +1.87E+05  +1.134E+03  +9.048E+03  -2.959E+02  +7.236E+02  -1.031E+03  -2.364E+02  +8.996E+03
  +1.64E+05  +4.45E+05  +1.65E+05  +1.134E+03  +9.048E+03  -2.959E+02  +7.236E+02  -1.031E+03  -2.364E+02  +8.996E+03
  +1.86E+05  +4.38E+05  +1.87E+05  +1.134E+03  +9.048E+03  -2.959E+02  +7.236E+02  -1.031E+03  -2.364E+02  +8.996E+03
  +1.86E+05  +4.48E+05  +1.64E+05  +1.134E+03  +9.048E+03  -2.959E+02  +7.236E+02  -1.031E+03  -2.364E+02  +8.996E+03

element # = 42     type =4-n tetrahedron
 XX         YY         ZZ         SIGXX       SIGYY       SIGZZ       TAUXY       TAUYZ       TAUZX       SIGV
  +5.00E+04  +2.34E+05  +2.40E+04  -1.036E+03  -1.945E+04  -1.228E+02  +2.207E+02  -1.475E+03  +1.515E+03  +1.924E+04
  +5.53E+04  +2.26E+05  +5.68E+03  -1.036E+03  -1.945E+04  -1.228E+02  +2.207E+02  -1.475E+03  +1.515E+03  +1.924E+04
  +7.76E+04  +2.36E+05  +5.68E+03  -1.036E+03  -1.945E+04  -1.228E+02  +2.207E+02  -1.475E+03  +1.515E+03  +1.924E+04
  +5.53E+04  +2.47E+05  +5.68E+03  -1.036E+03  -1.945E+04  -1.228E+02  +2.207E+02  -1.475E+03  +1.515E+03  +1.924E+04

element # = 43     type =4-n tetrahedron
 XX         YY         ZZ         SIGXX       SIGYY       SIGZZ       TAUXY       TAUYZ       TAUZX       SIGV
  +4.93E+04  +3.34E+05  +1.43E+05  -2.766E+02  +2.671E+03  -3.841E+02  -1.048E+02  -2.291E+03  +7.723E+02  +5.156E+03
  +7.16E+04  +3.45E+05  +1.30E+05  -2.766E+02  +2.671E+03  -3.841E+02  -1.048E+02  -2.291E+03  +7.723E+02  +5.156E+03
  +4.61E+04  +3.47E+05  +1.28E+05  -2.766E+02  +2.671E+03  -3.841E+02  -1.048E+02  -2.291E+03  +7.723E+02  +5.156E+03
  +4.86E+04  +3.23E+05  +1.22E+05  -2.766E+02  +2.671E+03  -3.841E+02  -1.048E+02  -2.291E+03  +7.723E+02  +5.156E+03

element # = 44     type =4-n tetrahedron
 XX         YY         ZZ         SIGXX       SIGYY       SIGZZ       TAUXY       TAUYZ       TAUZX       SIGV
  +1.91E+05  +7.52E+05  +5.96E+04  -2.535E+02  -1.187E+03  -4.555E+02  -6.908E+01  -7.999E+02  -1.265E+02  +1.645E+03
  +1.91E+05  +7.73E+05  +5.96E+04  -2.535E+02  -1.187E+03  -4.555E+02  -6.908E+01  -7.999E+02  -1.265E+02  +1.645E+03
  +1.91E+05  +7.63E+05  +8.19E+04  -2.535E+02  -1.187E+03  -4.555E+02  -6.908E+01  -7.999E+02  -1.265E+02  +1.645E+03
  +1.60E+05  +7.60E+05  +6.81E+04  -2.535E+02  -1.187E+03  -4.555E+02  -6.908E+01  -7.999E+02  -1.265E+02  +1.645E+03

element # = 45     type =4-n tetrahedron
 XX         YY         ZZ         SIGXX       SIGYY       SIGZZ       TAUXY       TAUYZ       TAUZX       SIGV
  +1.80E+05  +9.28E+05  +9.54E+04  +4.352E+01  +9.260E+00  -1.338E+02  -1.049E+01  -2.184E+02  +2.300E+01  +4.142E+02
  +1.52E+05  +9.43E+05  +7.36E+04  +4.352E+01  +9.260E+00  -1.338E+02  -1.049E+01  -2.184E+02  +2.300E+01  +4.142E+02
  +1.80E+05  +9.49E+05  +9.54E+04  +4.352E+01  +9.260E+00  -1.338E+02  -1.049E+01  -2.184E+02  +2.300E+01  +4.142E+02
  +1.42E+05  +9.41E+05  +1.02E+05  +4.352E+01  +9.260E+00  -1.338E+02  -1.049E+01  -2.184E+02  +2.300E+01  +4.142E+02

element # = 46     type =4-n tetrahedron
 XX         YY         ZZ         SIGXX       SIGYY       SIGZZ       TAUXY       TAUYZ       TAUZX       SIGV
  +8.15E+04  +1.77E+05  +1.43E+04  +7.609E+02  -1.297E+04  +2.337E+01  -8.720E+02  -1.917E+03  +1.384E+02  +1.387E+04
  +5.93E+04  +1.66E+05  +1.43E+04  +7.609E+02  -1.297E+04  +2.337E+01  -8.720E+02  -1.917E+03  +1.384E+02  +1.387E+04
  +5.66E+04  +1.78E+05  +3.51E+04  +7.609E+02  -1.297E+04  +2.337E+01  -8.720E+02  -1.917E+03  +1.384E+02  +1.387E+04
  +6.90E+04  +1.52E+05  +3.98E+04  +7.609E+02  -1.297E+04  +2.337E+01  -8.720E+02  -1.917E+03  +1.384E+02  +1.387E+04

element # = 47     type =4-n tetrahedron
 XX         YY         ZZ         SIGXX       SIGYY       SIGZZ       TAUXY       TAUYZ       TAUZX       SIGV
  +5.28E+04  +7.34E+04  +1.91E+05  +2.549E+03  +2.612E+04  -2.516E+03  -1.528E+03  -9.846E+02  -3.143E+02  +2.666E+04
  +6.20E+04  +9.40E+04  +1.77E+05  +2.549E+03  +2.612E+04  -2.516E+03  -1.528E+03  -9.846E+02  -3.143E+02  +2.666E+04
  +5.19E+04  +9.91E+04  +1.91E+05  +2.549E+03  +2.612E+04  -2.516E+03  -1.528E+03  -9.846E+02  -3.143E+02  +2.666E+04
  +4.54E+04  +8.39E+04  +1.75E+05  +2.549E+03  +2.612E+04  -2.516E+03  -1.528E+03  -9.846E+02  -3.143E+02  +2.666E+04

element # = 48     type =4-n tetrahedron
 XX         YY         ZZ         SIGXX       SIGYY       SIGZZ       TAUXY       TAUYZ       TAUZX       SIGV
  +1.54E+05  +4.69E+05  +1.57E+05  +2.730E+02  +4.911E+03  -6.905E+02  -1.316E+00  -4.693E+02  +1.817E+02  +5.260E+03
  +1.47E+05  +4.96E+05  +1.52E+05  +2.730E+02  +4.911E+03  -6.905E+02  -1.316E+00  -4.693E+02  +1.817E+02  +5.260E+03
  +1.77E+05  +4.93E+05  +1.56E+05  +2.730E+02  +4.911E+03  -6.905E+02  -1.316E+00  -4.693E+02  +1.817E+02  +5.260E+03
  +1.55E+05  +4.93E+05  +1.78E+05  +2.730E+02  +4.911E+03  -6.905E+02  -1.316E+00  -4.693E+02  +1.817E+02  +5.260E+03

element # = 49     type =4-n tetrahedron
 XX         YY         ZZ         SIGXX       SIGYY       SIGZZ       TAUXY       TAUYZ       TAUZX       SIGV
  +1.85E+05  +4.25E+05  +4.37E+04  -3.014E+02  -5.201E+03  +8.403E+02  -8.952E+01  -5.186E+02  -3.059E+02  +5.659E+03
  +1.63E+05  +4.46E+05  +2.13E+04  -3.014E+02  -5.201E+03  +8.403E+02  -8.952E+01  -5.186E+02  -3.059E+02  +5.659E+03
  +1.85E+05  +4.46E+05  +4.37E+04  -3.014E+02  -5.201E+03  +8.403E+02  -8.952E+01  -5.186E+02  -3.059E+02  +5.659E+03
  +1.59E+05  +4.46E+05  +4.55E+04  -3.014E+02  -5.201E+03  +8.403E+02  -8.952E+01  -5.186E+02  -3.059E+02  +5.659E+03

element # = 50     type =4-n tetrahedron
 XX         YY         ZZ         SIGXX       SIGYY       SIGZZ       TAUXY       TAUYZ       TAUZX       SIGV
  +1.12E+05  +5.10E+05  +1.53E+05  +7.356E+01  +3.867E+03  -6.381E+02  +2.271E+02  -5.903E+02  -3.401E+01  +4.336E+03
  +9.03E+04  +5.27E+05  +1.55E+05  +7.356E+01  +3.867E+03  -6.381E+02  +2.271E+02  -5.903E+02  -3.401E+01  +4.336E+03
  +9.70E+04  +5.18E+05  +1.79E+05  +7.356E+01  +3.867E+03  -6.381E+02  +2.271E+02  -5.903E+02  -3.401E+01  +4.336E+03
  +7.90E+04  +4.99E+05  +1.61E+05  +7.356E+01  +3.867E+03  -6.381E+02  +2.271E+02  -5.903E+02  -3.401E+01  +4.336E+03

element # = 51     type =4-n tetrahedron
 XX         YY         ZZ         SIGXX       SIGYY       SIGZZ       TAUXY       TAUYZ       TAUZX       SIGV
  +8.77E+04  +6.39E+05  +4.83E+04  -4.359E+02  -4.088E+03  -4.717E+02  +3.393E+02  -6.037E+02  +1.776E+01  +3.827E+03
  +1.02E+05  +6.34E+05  +1.73E+04  -4.359E+02  -4.088E+03  -4.717E+02  +3.393E+02  -6.037E+02  +1.776E+01  +3.827E+03
  +1.21E+05  +6.57E+05  +4.26E+04  -4.359E+02  -4.088E+03  -4.717E+02  +3.393E+02  -6.037E+02  +1.776E+01  +3.827E+03
  +1.02E+05  +6.56E+05  +1.73E+04  -4.359E+02  -4.088E+03  -4.717E+02  +3.393E+02  -6.037E+02  +1.776E+01  +3.827E+03

element # = 52     type =4-n tetrahedron
 XX         YY         ZZ         SIGXX       SIGYY       SIGZZ       TAUXY       TAUYZ       TAUZX       SIGV
  +4.82E+04  +3.06E+04  +8.04E+04  -2.265E+02  -5.769E+03  -1.787E+03  +8.124E+02  -3.049E+03  +1.693E+02  +7.380E+03
  +5.08E+04  +1.22E+04  +9.03E+04  -2.265E+02  -5.769E+03  -1.787E+03  +8.124E+02  -3.049E+03  +1.693E+02  +7.380E+03
  +7.54E+04  +3.31E+04  +9.03E+04  -2.265E+02  -5.769E+03  -1.787E+03  +8.124E+02  -3.049E+03  +1.693E+02  +7.380E+03
  +5.48E+04  +1.22E+04  +6.87E+04  -2.265E+02  -5.769E+03  -1.787E+03  +8.124E+02  -3.049E+03  +1.693E+02  +7.380E+03

element # = 53     type =4-n tetrahedron
 XX         YY         ZZ         SIGXX       SIGYY       SIGZZ       TAUXY       TAUYZ       TAUZX       SIGV
  +4.04E+04  +3.44E+05  +9.89E+04  -6.180E+02  +1.617E+03  -1.148E+03  +1.096E+02  -1.248E+03  -6.378E+02  +3.520E+03
  +3.42E+04  +3.47E+05  +1.17E+05  -6.180E+02  +1.617E+03  -1.148E+03  +1.096E+02  -1.248E+03  -6.378E+02  +3.520E+03
  +3.66E+04  +3.24E+05  +1.11E+05  -6.180E+02  +1.617E+03  -1.148E+03  +1.096E+02  -1.248E+03  -6.378E+02  +3.520E+03
  +1.78E+04  +3.38E+05  +1.15E+05  -6.180E+02  +1.617E+03  -1.148E+03  +1.096E+02  -1.248E+03  -6.378E+02  +3.520E+03

element # = 54     type =4-n tetrahedron
 XX         YY         ZZ         SIGXX       SIGYY       SIGZZ       TAUXY       TAUYZ       TAUZX       SIGV
  +6.35E+04  +6.47E+03  +7.17E+04  -2.101E+02  -4.902E+02  -2.101E+02  +1.686E+02  -3.308E+03  +0.000E+00  +5.744E+03
  +5.95E+04  +6.47E+03  +9.33E+04  -2.101E+02  -4.902E+02  -2.101E+02  +1.686E+02  -3.308E+03  +0.000E+00  +5.744E+03
  +8.42E+04  +2.74E+04  +9.34E+04  -2.101E+02  -4.902E+02  -2.101E+02  +1.686E+02  -3.308E+03  +0.000E+00  +5.744E+03
  +8.51E+04  +6.47E+03  +9.33E+04  -2.101E+02  -4.902E+02  -2.101E+02  +1.686E+02  -3.308E+03  +0.000E+00  +5.744E+03

element # = 55     type =4-n tetrahedron
 XX         YY         ZZ         SIGXX       SIGYY       SIGZZ       TAUXY       TAUYZ       TAUZX       SIGV
  +3.54E+04  +3.39E+05  +9.28E+04  +3.152E+02  +4.299E+02  -1.003E+02  -4.637E+02  -2.471E+03  +2.422E+02  +4.402E+03
  +3.16E+04  +3.19E+05  +1.05E+05  +3.152E+02  +4.299E+02  -1.003E+02  -4.637E+02  -2.471E+03  +2.422E+02  +4.402E+03
  +1.28E+04  +3.26E+05  +9.10E+04  +3.152E+02  +4.299E+02  -1.003E+02  -4.637E+02  -2.471E+03  +2.422E+02  +4.402E+03
  +1.28E+04  +3.33E+05  +1.09E+05  +3.152E+02  +4.299E+02  -1.003E+02  -4.637E+02  -2.471E+03  +2.422E+02  +4.402E+03

element # = 56     type =4-n tetrahedron
 XX         YY         ZZ         SIGXX       SIGYY       SIGZZ       TAUXY       TAUYZ       TAUZX       SIGV
  +1.25E+05  +4.10E+04  +1.15E+05  +4.605E+03  +1.509E+04  +1.637E+03  -6.589E+02  -2.708E+02  -9.519E+02  +1.241E+04
  +1.47E+05  +2.01E+04  +1.37E+05  +4.605E+03  +1.509E+04  +1.637E+03  -6.589E+02  -2.708E+02  -9.519E+02  +1.241E+04
  +1.44E+05  +4.59E+04  +1.41E+05  +4.605E+03  +1.509E+04  +1.637E+03  -6.589E+02  -2.708E+02  -9.519E+02  +1.241E+04
  +1.71E+05  +3.84E+04  +1.15E+05  +4.605E+03  +1.509E+04  +1.637E+03  -6.589E+02  -2.708E+02  -9.519E+02  +1.241E+04

element # = 57     type =4-n tetrahedron
 XX         YY         ZZ         SIGXX       SIGYY       SIGZZ       TAUXY       TAUYZ       TAUZX       SIGV
  +6.98E+03  +3.56E+05  +8.91E+04  -2.509E+02  -2.171E+03  -2.509E+02  -1.781E+02  -3.000E+03  +7.573E+02  +5.702E+03
  +2.96E+04  +3.48E+05  +8.91E+04  -2.509E+02  -2.171E+03  -2.509E+02  -1.781E+02  -3.000E+03  +7.573E+02  +5.702E+03
  +6.98E+03  +3.35E+05  +8.73E+04  -2.509E+02  -2.171E+03  -2.509E+02  -1.781E+02  -3.000E+03  +7.573E+02  +5.702E+03
  +6.98E+03  +3.42E+05  +1.06E+05  -2.509E+02  -2.171E+03  -2.509E+02  -1.781E+02  -3.000E+03  +7.573E+02  +5.702E+03

element # = 58     type =4-n tetrahedron
 XX         YY         ZZ         SIGXX       SIGYY       SIGZZ       TAUXY       TAUYZ       TAUZX       SIGV
  +6.82E+03  +3.38E+05  +4.75E+04  -4.851E+02  -8.577E+03  +1.724E+02  +2.852E+02  -2.624E+03  +9.175E+02  +9.729E+03
  +6.82E+03  +3.17E+05  +4.65E+04  -4.851E+02  -8.577E+03  +1.724E+02  +2.852E+02  -2.624E+03  +9.175E+02  +9.729E+03
  +6.82E+03  +3.24E+05  +6.49E+04  -4.851E+02  -8.577E+03  +1.724E+02  +2.852E+02  -2.624E+03  +9.175E+02  +9.729E+03
  +2.89E+04  +3.23E+05  +5.01E+04  -4.851E+02  -8.577E+03  +1.724E+02  +2.852E+02  -2.624E+03  +9.175E+02  +9.729E+03

element # = 59     type =4-n tetrahedron
 XX         YY         ZZ         SIGXX       SIGYY       SIGZZ       TAUXY       TAUYZ       TAUZX       SIGV
  +3.46E+04  +3.53E+05  +9.52E+04  +5.619E+02  +1.824E+03  +3.366E+02  -2.356E+02  -2.187E+03  +1.163E+02  +4.059E+03
  +1.20E+04  +3.61E+05  +9.52E+04  +5.619E+02  +1.824E+03  +3.366E+02  -2.356E+02  -2.187E+03  +1.163E+02  +4.059E+03
  +2.84E+04  +3.56E+05  +1.13E+05  +5.619E+02  +1.824E+03  +3.366E+02  -2.356E+02  -2.187E+03  +1.163E+02  +4.059E+03
  +1.20E+04  +3.47E+05  +1.12E+05  +5.619E+02  +1.824E+03  +3.366E+02  -2.356E+02  -2.187E+03  +1.163E+02  +4.059E+03

element # = 60     type =4-n tetrahedron
 XX         YY         ZZ         SIGXX       SIGYY       SIGZZ       TAUXY       TAUYZ       TAUZX       SIGV
  +1.93E+05  +5.11E+05  +1.93E+05  +4.956E+02  +7.791E+03  -4.220E+02  +1.844E+02  -9.920E+02  -3.505E+02  +8.011E+03
  +1.71E+05  +5.00E+05  +1.93E+05  +4.956E+02  +7.791E+03  -4.220E+02  +1.844E+02  -9.920E+02  -3.505E+02  +8.011E+03
  +1.93E+05  +4.89E+05  +1.93E+05  +4.956E+02  +7.791E+03  -4.220E+02  +1.844E+02  -9.920E+02  -3.505E+02  +8.011E+03
  +1.93E+05  +5.00E+05  +1.71E+05  +4.956E+02  +7.791E+03  -4.220E+02  +1.844E+02  -9.920E+02  -3.505E+02  +8.011E+03

element # = 61     type =4-n tetrahedron
 XX         YY         ZZ         SIGXX       SIGYY       SIGZZ       TAUXY       TAUYZ       TAUZX       SIGV
  +1.84E+05  +6.35E+05  +5.81E+04  -2.539E+02  -2.184E+03  -3.730E+02  -2.038E+02  -1.264E+03  +2.342E+01  +2.903E+03
  +1.57E+05  +6.09E+05  +5.92E+04  -2.539E+02  -2.184E+03  -3.730E+02  -2.038E+02  -1.264E+03  +2.342E+01  +2.903E+03
  +1.58E+05  +6.47E+05  +6.10E+04  -2.539E+02  -2.184E+03  -3.730E+02  -2.038E+02  -1.264E+03  +2.342E+01  +2.903E+03
  +1.84E+05  +6.25E+05  +8.05E+04  -2.539E+02  -2.184E+03  -3.730E+02  -2.038E+02  -1.264E+03  +2.342E+01  +2.903E+03

element # = 62     type =4-n tetrahedron
 XX         YY         ZZ         SIGXX       SIGYY       SIGZZ       TAUXY       TAUYZ       TAUZX       SIGV
  +1.52E+05  +4.66E+05  +3.86E+04  -8.426E+02  -9.201E+03  -5.616E+02  +8.589E+02  -1.414E+03  -5.047E+02  +9.015E+03
  +1.56E+05  +4.66E+05  +1.44E+04  -8.426E+02  -9.201E+03  -5.616E+02  +8.589E+02  -1.414E+03  -5.047E+02  +9.015E+03
  +1.78E+05  +4.87E+05  +3.68E+04  -8.426E+02  -9.201E+03  -5.616E+02  +8.589E+02  -1.414E+03  -5.047E+02  +9.015E+03
  +1.56E+05  +4.87E+05  +1.44E+04  -8.426E+02  -9.201E+03  -5.616E+02  +8.589E+02  -1.414E+03  -5.047E+02  +9.015E+03

element # = 63     type =4-n tetrahedron
 XX         YY         ZZ         SIGXX       SIGYY       SIGZZ       TAUXY       TAUYZ       TAUZX       SIGV
  +1.63E+05  +4.59E+05  +2.13E+04  +6.924E+01  -4.415E+03  +1.255E+03  +1.257E+02  -1.924E+03  -3.361E+02  +6.191E+03
  +1.59E+05  +4.60E+05  +4.55E+04  +6.924E+01  -4.415E+03  +1.255E+03  +1.257E+02  -1.924E+03  -3.361E+02  +6.191E+03
  +1.85E+05  +4.80E+05  +4.37E+04  +6.924E+01  -4.415E+03  +1.255E+03  +1.257E+02  -1.924E+03  -3.361E+02  +6.191E+03
  +1.85E+05  +4.59E+05  +4.37E+04  +6.924E+01  -4.415E+03  +1.255E+03  +1.257E+02  -1.924E+03  -3.361E+02  +6.191E+03

element # = 64     type =4-n tetrahedron
 XX         YY         ZZ         SIGXX       SIGYY       SIGZZ       TAUXY       TAUYZ       TAUZX       SIGV
  +1.61E+05  +5.07E+05  +1.78E+05  -2.931E+02  +3.712E+03  -1.418E+03  +3.567E+01  -1.506E+03  +1.102E+02  +5.353E+03
  +1.84E+05  +5.29E+05  +1.56E+05  -2.931E+02  +3.712E+03  -1.418E+03  +3.567E+01  -1.506E+03  +1.102E+02  +5.353E+03
  +1.54E+05  +5.10E+05  +1.52E+05  -2.931E+02  +3.712E+03  -1.418E+03  +3.567E+01  -1.506E+03  +1.102E+02  +5.353E+03
  +1.84E+05  +5.07E+05  +1.56E+05  -2.931E+02  +3.712E+03  -1.418E+03  +3.567E+01  -1.506E+03  +1.102E+02  +5.353E+03

element # = 65     type =4-n tetrahedron
 XX         YY         ZZ         SIGXX       SIGYY       SIGZZ       TAUXY       TAUYZ       TAUZX       SIGV
  +1.93E+05  +4.89E+05  +6.91E+03  -2.063E+02  -8.128E+03  +1.127E+02  -4.135E+02  -1.057E+03  -6.099E+02  +8.388E+03
  +1.93E+05  +5.11E+05  +6.91E+03  -2.063E+02  -8.128E+03  +1.127E+02  -4.135E+02  -1.057E+03  -6.099E+02  +8.388E+03
  +1.93E+05  +5.00E+05  +2.93E+04  -2.063E+02  -8.128E+03  +1.127E+02  -4.135E+02  -1.057E+03  -6.099E+02  +8.388E+03
  +1.71E+05  +5.00E+05  +6.91E+03  -2.063E+02  -8.128E+03  +1.127E+02  -4.135E+02  -1.057E+03  -6.099E+02  +8.388E+03

element # = 66     type =4-n tetrahedron
 XX         YY         ZZ         SIGXX       SIGYY       SIGZZ       TAUXY       TAUYZ       TAUZX       SIGV
  +1.93E+05  +4.73E+05  +1.38E+04  +4.327E+02  -4.490E+03  +6.436E+02  -7.466E+02  -1.051E+03  -2.865E+02  +5.527E+03
  +1.71E+05  +4.62E+05  +1.38E+04  +4.327E+02  -4.490E+03  +6.436E+02  -7.466E+02  -1.051E+03  -2.865E+02  +5.527E+03
  +1.93E+05  +4.84E+05  +3.62E+04  +4.327E+02  -4.490E+03  +6.436E+02  -7.466E+02  -1.051E+03  -2.865E+02  +5.527E+03
  +1.93E+05  +4.62E+05  +3.62E+04  +4.327E+02  -4.490E+03  +6.436E+02  -7.466E+02  -1.051E+03  -2.865E+02  +5.527E+03

element # = 67     type =4-n tetrahedron
 XX         YY         ZZ         SIGXX       SIGYY       SIGZZ       TAUXY       TAUYZ       TAUZX       SIGV
  +1.93E+05  +4.63E+05  +6.91E+03  -6.314E+02  -8.536E+03  +2.261E+01  -3.684E+02  -9.652E+02  -7.665E+02  +8.546E+03
  +1.71E+05  +4.52E+05  +6.91E+03  -6.314E+02  -8.536E+03  +2.261E+01  -3.684E+02  -9.652E+02  -7.665E+02  +8.546E+03
  +1.93E+05  +4.52E+05  +2.93E+04  -6.314E+02  -8.536E+03  +2.261E+01  -3.684E+02  -9.652E+02  -7.665E+02  +8.546E+03
  +1.93E+05  +4.42E+05  +6.91E+03  -6.314E+02  -8.536E+03  +2.261E+01  -3.684E+02  -9.652E+02  -7.665E+02  +8.546E+03

element # = 68     type =4-n tetrahedron
 XX         YY         ZZ         SIGXX       SIGYY       SIGZZ       TAUXY       TAUYZ       TAUZX       SIGV
  +1.13E+05  +7.52E+05  +4.57E+04  -5.134E+02  -2.438E+03  -3.178E+02  -1.123E+01  -4.432E+02  -5.632E+01  +2.172E+03
  +8.12E+04  +7.50E+05  +3.19E+04  -5.134E+02  -2.438E+03  -3.178E+02  -1.123E+01  -4.432E+02  -5.632E+01  +2.172E+03
  +9.89E+04  +7.33E+05  +1.48E+04  -5.134E+02  -2.438E+03  -3.178E+02  -1.123E+01  -4.432E+02  -5.632E+01  +2.172E+03
  +9.89E+04  +7.54E+05  +1.48E+04  -5.134E+02  -2.438E+03  -3.178E+02  -1.123E+01  -4.432E+02  -5.632E+01  +2.172E+03

element # = 69     type =4-n tetrahedron
 XX         YY         ZZ         SIGXX       SIGYY       SIGZZ       TAUXY       TAUYZ       TAUZX       SIGV
  +1.33E+05  +1.98E+05  +7.25E+04  +1.933E+02  -6.610E+03  +3.612E+02  -4.549E+02  -8.114E+02  -2.029E+03  +7.899E+03
  +1.11E+05  +2.18E+05  +6.99E+04  +1.933E+02  -6.610E+03  +3.612E+02  -4.549E+02  -8.114E+02  -2.029E+03  +7.899E+03
  +1.33E+05  +2.38E+05  +6.87E+04  +1.933E+02  -6.610E+03  +3.612E+02  -4.549E+02  -8.114E+02  -2.029E+03  +7.899E+03
  +1.34E+05  +2.25E+05  +1.01E+05  +1.933E+02  -6.610E+03  +3.612E+02  -4.549E+02  -8.114E+02  -2.029E+03  +7.899E+03

element # = 70     type =4-n tetrahedron
 XX         YY         ZZ         SIGXX       SIGYY       SIGZZ       TAUXY       TAUYZ       TAUZX       SIGV
  +7.80E+04  +3.92E+05  +1.47E+05  +8.213E+02  +4.420E+03  +3.359E+03  +7.554E+01  -1.220E+03  +3.830E+02  +3.897E+03
  +1.16E+05  +3.96E+05  +1.42E+05  +8.213E+02  +4.420E+03  +3.359E+03  +7.554E+01  -1.220E+03  +3.830E+02  +3.897E+03
  +1.00E+05  +4.19E+05  +1.29E+05  +8.213E+02  +4.420E+03  +3.359E+03  +7.554E+01  -1.220E+03  +3.830E+02  +3.897E+03
  +9.58E+04  +3.77E+05  +1.34E+05  +8.213E+02  +4.420E+03  +3.359E+03  +7.554E+01  -1.220E+03  +3.830E+02  +3.897E+03

element # = 71     type =4-n tetrahedron
 XX         YY         ZZ         SIGXX       SIGYY       SIGZZ       TAUXY       TAUYZ       TAUZX       SIGV
  +1.58E+05  +4.92E+04  +1.63E+05  +1.286E+03  +1.648E+04  -3.360E+03  -1.544E+03  +9.046E+02  -1.234E+03  +1.836E+04
  +1.85E+05  +2.34E+04  +1.64E+05  +1.286E+03  +1.648E+04  -3.360E+03  -1.544E+03  +9.046E+02  -1.234E+03  +1.836E+04
  +1.61E+05  +4.84E+04  +1.82E+05  +1.286E+03  +1.648E+04  -3.360E+03  -1.544E+03  +9.046E+02  -1.234E+03  +1.836E+04
  +1.85E+05  +4.84E+04  +1.58E+05  +1.286E+03  +1.648E+04  -3.360E+03  -1.544E+03  +9.046E+02  -1.234E+03  +1.836E+04

element # = 72     type =4-n tetrahedron
 XX         YY         ZZ         SIGXX       SIGYY       SIGZZ       TAUXY       TAUYZ       TAUZX       SIGV
  +6.73E+04  +1.12E+05  +1.96E+05  +1.293E+03  +2.567E+04  +8.236E+02  +2.252E+02  -2.634E+03  -4.459E+02  +2.505E+04
  +8.94E+04  +1.00E+05  +1.96E+05  +1.293E+03  +2.567E+04  +8.236E+02  +2.252E+02  -2.634E+03  -4.459E+02  +2.505E+04
  +8.94E+04  +1.23E+05  +1.96E+05  +1.293E+03  +2.567E+04  +8.236E+02  +2.252E+02  -2.634E+03  -4.459E+02  +2.505E+04
  +7.74E+04  +1.06E+05  +1.82E+05  +1.293E+03  +2.567E+04  +8.236E+02  +2.252E+02  -2.634E+03  -4.459E+02  +2.505E+04

element # = 73     type =4-n tetrahedron
 XX         YY         ZZ         SIGXX       SIGYY       SIGZZ       TAUXY       TAUYZ       TAUZX       SIGV
  +1.77E+04  +1.09E+04  +4.60E+04  -6.657E+03  -1.588E+04  -4.536E+03  -2.364E+03  -5.443E+02  +7.127E+02  +1.133E+04
  +3.42E+04  +2.93E+04  +6.30E+04  -6.657E+03  -1.588E+04  -4.536E+03  -2.364E+03  -5.443E+02  +7.127E+02  +1.133E+04
  +3.52E+04  +2.77E+04  +4.32E+04  -6.657E+03  -1.588E+04  -4.536E+03  -2.364E+03  -5.443E+02  +7.127E+02  +1.133E+04
  +4.07E+04  +1.09E+04  +5.12E+04  -6.657E+03  -1.588E+04  -4.536E+03  -2.364E+03  -5.443E+02  +7.127E+02  +1.133E+04

element # = 74     type =4-n tetrahedron
 XX         YY         ZZ         SIGXX       SIGYY       SIGZZ       TAUXY       TAUYZ       TAUZX       SIGV
  +1.93E+05  +2.99E+05  +1.93E+05  +9.200E+02  +1.676E+04  -3.969E+02  +6.249E+02  -1.131E+03  +3.274E+02  +1.670E+04
  +1.93E+05  +3.09E+05  +1.71E+05  +9.200E+02  +1.676E+04  -3.969E+02  +6.249E+02  -1.131E+03  +3.274E+02  +1.670E+04
  +1.93E+05  +3.20E+05  +1.93E+05  +9.200E+02  +1.676E+04  -3.969E+02  +6.249E+02  -1.131E+03  +3.274E+02  +1.670E+04
  +1.71E+05  +3.09E+05  +1.93E+05  +9.200E+02  +1.676E+04  -3.969E+02  +6.249E+02  -1.131E+03  +3.274E+02  +1.670E+04

element # = 75     type =4-n tetrahedron
 XX         YY         ZZ         SIGXX       SIGYY       SIGZZ       TAUXY       TAUYZ       TAUZX       SIGV
  +9.11E+04  +6.83E+05  +1.66E+04  -4.149E+02  -3.188E+03  -4.354E+02  -3.004E+01  -6.121E+02  +2.080E+01  +2.960E+03
  +8.78E+04  +6.95E+05  +4.95E+04  -4.149E+02  -3.188E+03  -4.354E+02  -3.004E+01  -6.121E+02  +2.080E+01  +2.960E+03
  +6.57E+04  +6.99E+05  +3.72E+04  -4.149E+02  -3.188E+03  -4.354E+02  -3.004E+01  -6.121E+02  +2.080E+01  +2.960E+03
  +9.11E+04  +7.04E+05  +1.66E+04  -4.149E+02  -3.188E+03  -4.354E+02  -3.004E+01  -6.121E+02  +2.080E+01  +2.960E+03

element # = 76     type =4-n tetrahedron
 XX         YY         ZZ         SIGXX       SIGYY       SIGZZ       TAUXY       TAUYZ       TAUZX       SIGV
  +1.93E+05  +3.68E+05  +6.91E+03  -1.158E+03  -1.369E+04  -7.835E+02  -4.607E+02  -8.351E+02  -7.667E+02  +1.290E+04
  +1.93E+05  +3.57E+05  +2.93E+04  -1.158E+03  -1.369E+04  -7.835E+02  -4.607E+02  -8.351E+02  -7.667E+02  +1.290E+04
  +1.93E+05  +3.46E+05  +6.91E+03  -1.158E+03  -1.369E+04  -7.835E+02  -4.607E+02  -8.351E+02  -7.667E+02  +1.290E+04
  +1.71E+05  +3.57E+05  +6.91E+03  -1.158E+03  -1.369E+04  -7.835E+02  -4.607E+02  -8.351E+02  -7.667E+02  +1.290E+04

element # = 77     type =4-n tetrahedron
 XX         YY         ZZ         SIGXX       SIGYY       SIGZZ       TAUXY       TAUYZ       TAUZX       SIGV
  +1.54E+05  +7.55E+05  +1.65E+04  -2.728E+02  -1.848E+03  -2.874E+02  +6.998E+01  -4.265E+02  -2.417E+01  +1.738E+03
  +1.77E+05  +7.76E+05  +3.89E+04  -2.728E+02  -1.848E+03  -2.874E+02  +6.998E+01  -4.265E+02  -2.417E+01  +1.738E+03
  +1.46E+05  +7.64E+05  +4.73E+04  -2.728E+02  -1.848E+03  -2.874E+02  +6.998E+01  -4.265E+02  -2.417E+01  +1.738E+03
  +1.54E+05  +7.76E+05  +1.65E+04  -2.728E+02  -1.848E+03  -2.874E+02  +6.998E+01  -4.265E+02  -2.417E+01  +1.738E+03

element # = 78     type =4-n tetrahedron
 XX         YY         ZZ         SIGXX       SIGYY       SIGZZ       TAUXY       TAUYZ       TAUZX       SIGV
  +1.88E+04  +6.25E+05  +1.10E+04  +2.845E+02  -2.761E+03  -1.116E+02  -1.350E+02  -4.407E+02  -1.030E+02  +2.982E+03
  +3.97E+04  +6.14E+05  +2.83E+04  +2.845E+02  -2.761E+03  -1.116E+02  -1.350E+02  -4.407E+02  -1.030E+02  +2.982E+03
  +3.63E+04  +6.43E+05  +2.91E+04  +2.845E+02  -2.761E+03  -1.116E+02  -1.350E+02  -4.407E+02  -1.030E+02  +2.982E+03
  +4.12E+04  +6.35E+05  +1.10E+04  +2.845E+02  -2.761E+03  -1.116E+02  -1.350E+02  -4.407E+02  -1.030E+02  +2.982E+03

element # = 79     type =4-n tetrahedron
 XX         YY         ZZ         SIGXX       SIGYY       SIGZZ       TAUXY       TAUYZ       TAUZX       SIGV
  +1.17E+05  +7.18E+05  +1.73E+04  +2.414E+02  -1.184E+03  -1.244E+02  -2.822E+02  -3.567E+02  -4.094E+01  +1.507E+03
  +1.31E+05  +7.37E+05  +4.82E+04  +2.414E+02  -1.184E+03  -1.244E+02  -2.822E+02  -3.567E+02  -4.094E+01  +1.507E+03
  +1.39E+05  +7.29E+05  +1.73E+04  +2.414E+02  -1.184E+03  -1.244E+02  -2.822E+02  -3.567E+02  -4.094E+01  +1.507E+03
  +1.36E+05  +6.98E+05  +4.26E+04  +2.414E+02  -1.184E+03  -1.244E+02  -2.822E+02  -3.567E+02  -4.094E+01  +1.507E+03

element # = 80     type =4-n tetrahedron
 XX         YY         ZZ         SIGXX       SIGYY       SIGZZ       TAUXY       TAUYZ       TAUZX       SIGV
  +1.86E+05  +4.79E+05  +1.57E+05  -1.420E+02  +4.904E+03  -1.629E+03  -1.854E+02  -1.722E+03  +1.743E+01  +6.647E+03
  +1.64E+05  +4.58E+05  +1.80E+05  -1.420E+02  +4.904E+03  -1.629E+03  -1.854E+02  -1.722E+03  +1.743E+01  +6.647E+03
  +1.86E+05  +4.58E+05  +1.57E+05  -1.420E+02  +4.904E+03  -1.629E+03  -1.854E+02  -1.722E+03  +1.743E+01  +6.647E+03
  +1.64E+05  +4.55E+05  +1.58E+05  -1.420E+02  +4.904E+03  -1.629E+03  -1.854E+02  -1.722E+03  +1.743E+01  +6.647E+03

element # = 81     type =4-n tetrahedron
 XX         YY         ZZ         SIGXX       SIGYY       SIGZZ       TAUXY       TAUYZ       TAUZX       SIGV
  +1.05E+05  +3.14E+04  +1.90E+04  -5.595E+03  -1.666E+04  -2.301E+03  -1.016E+03  -1.813E+03  -5.052E+02  +1.354E+04
  +9.85E+04  +3.72E+04  +3.83E+04  -5.595E+03  -1.666E+04  -2.301E+03  -1.016E+03  -1.813E+03  -5.052E+02  +1.354E+04
  +1.26E+05  +1.31E+04  +4.21E+04  -5.595E+03  -1.666E+04  -2.301E+03  -1.016E+03  -1.813E+03  -5.052E+02  +1.354E+04
  +1.05E+05  +1.31E+04  +3.81E+04  -5.595E+03  -1.666E+04  -2.301E+03  -1.016E+03  -1.813E+03  -5.052E+02  +1.354E+04

element # = 82     type =4-n tetrahedron
 XX         YY         ZZ         SIGXX       SIGYY       SIGZZ       TAUXY       TAUYZ       TAUZX       SIGV
  +1.42E+05  +9.84E+04  +8.53E+03  -2.741E+03  -3.017E+04  -1.829E+03  +3.211E+02  -3.471E+02  -5.744E+02  +2.792E+04
  +1.39E+05  +8.75E+04  +3.61E+04  -2.741E+03  -3.017E+04  -1.829E+03  +3.211E+02  -3.471E+02  -5.744E+02  +2.792E+04
  +1.41E+05  +7.28E+04  +8.53E+03  -2.741E+03  -3.017E+04  -1.829E+03  +3.211E+02  -3.471E+02  -5.744E+02  +2.792E+04
  +1.20E+05  +8.69E+04  +8.53E+03  -2.741E+03  -3.017E+04  -1.829E+03  +3.211E+02  -3.471E+02  -5.744E+02  +2.792E+04

element # = 83     type =4-n tetrahedron
 XX         YY         ZZ         SIGXX       SIGYY       SIGZZ       TAUXY       TAUYZ       TAUZX       SIGV
  +1.13E+05  +6.36E+05  +7.79E+03  -3.597E+02  -4.125E+03  -6.730E+02  -1.369E+02  -2.418E+02  +8.229E+01  +3.654E+03
  +1.35E+05  +6.47E+05  +7.79E+03  -3.597E+02  -4.125E+03  -6.730E+02  -1.369E+02  -2.418E+02  +8.229E+01  +3.654E+03
  +1.32E+05  +6.58E+05  +3.30E+04  -3.597E+02  -4.125E+03  -6.730E+02  -1.369E+02  -2.418E+02  +8.229E+01  +3.654E+03
  +1.13E+05  +6.57E+05  +7.79E+03  -3.597E+02  -4.125E+03  -6.730E+02  -1.369E+02  -2.418E+02  +8.229E+01  +3.654E+03

element # = 84     type =4-n tetrahedron
 XX         YY         ZZ         SIGXX       SIGYY       SIGZZ       TAUXY       TAUYZ       TAUZX       SIGV
  +9.50E+03  +9.45E+05  +4.04E+04  -6.305E+00  -1.060E+02  -7.174E+01  +2.375E+01  -9.895E+01  +1.337E+01  +1.982E+02
  +2.43E+04  +9.36E+05  +3.27E+04  -6.305E+00  -1.060E+02  -7.174E+01  +2.375E+01  -9.895E+01  +1.337E+01  +1.982E+02
  +2.54E+04  +9.55E+05  +3.24E+04  -6.305E+00  -1.060E+02  -7.174E+01  +2.375E+01  -9.895E+01  +1.337E+01  +1.982E+02
  +9.50E+03  +9.49E+05  +1.69E+04  -6.305E+00  -1.060E+02  -7.174E+01  +2.375E+01  -9.895E+01  +1.337E+01  +1.982E+02

element # = 85     type =4-n tetrahedron
 XX         YY         ZZ         SIGXX       SIGYY       SIGZZ       TAUXY       TAUYZ       TAUZX       SIGV
  +1.42E+05  +6.98E+05  +7.79E+03  -4.877E+01  -2.328E+03  -2.208E+00  -9.498E+01  -6.689E+02  -1.428E+02  +2.595E+03
  +1.20E+05  +7.09E+05  +7.79E+03  -4.877E+01  -2.328E+03  -2.208E+00  -9.498E+01  -6.689E+02  -1.428E+02  +2.595E+03
  +1.42E+05  +7.19E+05  +7.79E+03  -4.877E+01  -2.328E+03  -2.208E+00  -9.498E+01  -6.689E+02  -1.428E+02  +2.595E+03
  +1.39E+05  +6.88E+05  +3.30E+04  -4.877E+01  -2.328E+03  -2.208E+00  -9.498E+01  -6.689E+02  -1.428E+02  +2.595E+03

element # = 86     type =4-n tetrahedron
 XX         YY         ZZ         SIGXX       SIGYY       SIGZZ       TAUXY       TAUYZ       TAUZX       SIGV
  +1.24E+05  +8.44E+05  +1.17E+05  +1.942E+02  +4.075E+02  -3.565E+01  +3.583E+01  -4.650E+02  -4.284E+01  +8.975E+02
  +1.03E+05  +8.63E+05  +9.40E+04  +1.942E+02  +4.075E+02  -3.565E+01  +3.583E+01  -4.650E+02  -4.284E+01  +8.975E+02
  +1.29E+05  +8.54E+05  +8.62E+04  +1.942E+02  +4.075E+02  -3.565E+01  +3.583E+01  -4.650E+02  -4.284E+01  +8.975E+02
  +1.31E+05  +8.72E+05  +1.26E+05  +1.942E+02  +4.075E+02  -3.565E+01  +3.583E+01  -4.650E+02  -4.284E+01  +8.975E+02

element # = 87     type =4-n tetrahedron
 XX         YY         ZZ         SIGXX       SIGYY       SIGZZ       TAUXY       TAUYZ       TAUZX       SIGV
  +1.83E+05  +8.06E+05  +1.54E+05  +5.022E+01  +6.135E+02  -4.351E+02  +1.719E+01  -3.695E+02  -6.452E+00  +1.112E+03
  +1.61E+05  +8.28E+05  +1.77E+05  +5.022E+01  +6.135E+02  -4.351E+02  +1.719E+01  -3.695E+02  -6.452E+00  +1.112E+03
  +1.51E+05  +8.24E+05  +1.46E+05  +5.022E+01  +6.135E+02  -4.351E+02  +1.719E+01  -3.695E+02  -6.452E+00  +1.112E+03
  +1.83E+05  +8.28E+05  +1.54E+05  +5.022E+01  +6.135E+02  -4.351E+02  +1.719E+01  -3.695E+02  -6.452E+00  +1.112E+03

element # = 88     type =4-n tetrahedron
 XX         YY         ZZ         SIGXX       SIGYY       SIGZZ       TAUXY       TAUYZ       TAUZX       SIGV
  +1.25E+05  +4.31E+05  +1.12E+05  +5.719E+02  +1.891E+03  +9.936E+01  -1.284E+02  -2.180E+03  +1.937E+02  +4.123E+03
  +1.35E+05  +4.09E+05  +8.91E+04  +5.719E+02  +1.891E+03  +9.936E+01  -1.284E+02  -2.180E+03  +1.937E+02  +4.123E+03
  +1.41E+05  +4.07E+05  +1.26E+05  +5.719E+02  +1.891E+03  +9.936E+01  -1.284E+02  -2.180E+03  +1.937E+02  +4.123E+03
  +1.68E+05  +4.23E+05  +1.04E+05  +5.719E+02  +1.891E+03  +9.936E+01  -1.284E+02  -2.180E+03  +1.937E+02  +4.123E+03

element # = 89     type =4-n tetrahedron
 XX         YY         ZZ         SIGXX       SIGYY       SIGZZ       TAUXY       TAUYZ       TAUZX       SIGV
  +4.88E+04  +1.79E+04  +1.01E+05  -2.927E+01  -8.044E+02  -1.184E+03  -7.402E+01  +5.821E+02  +1.708E+03  +3.290E+03
  +4.62E+04  +3.64E+04  +9.09E+04  -2.927E+01  -8.044E+02  -1.184E+03  -7.402E+01  +5.821E+02  +1.708E+03  +3.290E+03
  +7.34E+04  +3.89E+04  +1.01E+05  -2.927E+01  -8.044E+02  -1.184E+03  -7.402E+01  +5.821E+02  +1.708E+03  +3.290E+03
  +4.62E+04  +3.66E+04  +1.13E+05  -2.927E+01  -8.044E+02  -1.184E+03  -7.402E+01  +5.821E+02  +1.708E+03  +3.290E+03

element # = 90     type =4-n tetrahedron
 XX         YY         ZZ         SIGXX       SIGYY       SIGZZ       TAUXY       TAUYZ       TAUZX       SIGV
  +1.44E+05  +9.60E+05  +7.09E+03  +2.500E+01  -4.637E+01  -3.407E+01  +1.387E+00  -3.905E+01  -1.710E+00  +9.464E+01
  +1.32E+05  +9.85E+05  +7.09E+03  +2.500E+01  -4.637E+01  -3.407E+01  +1.387E+00  -3.905E+01  -1.710E+00  +9.464E+01
  +1.50E+05  +9.85E+05  +7.09E+03  +2.500E+01  -4.637E+01  -3.407E+01  +1.387E+00  -3.905E+01  -1.710E+00  +9.464E+01
  +1.40E+05  +9.61E+05  +3.00E+04  +2.500E+01  -4.637E+01  -3.407E+01  +1.387E+00  -3.905E+01  -1.710E+00  +9.464E+01

element # = 91     type =4-n tetrahedron
 XX         YY         ZZ         SIGXX       SIGYY       SIGZZ       TAUXY       TAUYZ       TAUZX       SIGV
  +6.81E+04  +5.46E+05  +1.57E+05  +1.252E+02  +3.875E+03  -7.135E+02  +1.756E+02  -5.868E+02  +3.511E+02  +4.405E+03
  +5.25E+04  +5.47E+05  +1.80E+05  +1.252E+02  +3.875E+03  -7.135E+02  +1.756E+02  -5.868E+02  +3.511E+02  +4.405E+03
  +4.79E+04  +5.38E+05  +1.65E+05  +1.252E+02  +3.875E+03  -7.135E+02  +1.756E+02  -5.868E+02  +3.511E+02  +4.405E+03
  +4.93E+04  +5.57E+05  +1.56E+05  +1.252E+02  +3.875E+03  -7.135E+02  +1.756E+02  -5.868E+02  +3.511E+02  +4.405E+03

element # = 92     type =4-n tetrahedron
 XX         YY         ZZ         SIGXX       SIGYY       SIGZZ       TAUXY       TAUYZ       TAUZX       SIGV
  +1.46E+04  +8.17E+05  +1.12E+05  +2.760E+01  +2.743E+02  -3.154E+02  -9.511E+00  -6.660E+02  -2.043E+01  +1.263E+03
  +4.30E+04  +8.15E+05  +1.34E+05  +2.760E+01  +2.743E+02  -3.154E+02  -9.511E+00  -6.660E+02  -2.043E+01  +1.263E+03
  +1.46E+04  +8.27E+05  +1.34E+05  +2.760E+01  +2.743E+02  -3.154E+02  -9.511E+00  -6.660E+02  -2.043E+01  +1.263E+03
  +3.34E+04  +8.23E+05  +1.07E+05  +2.760E+01  +2.743E+02  -3.154E+02  -9.511E+00  -6.660E+02  -2.043E+01  +1.263E+03

element # = 93     type =4-n tetrahedron
 XX         YY         ZZ         SIGXX       SIGYY       SIGZZ       TAUXY       TAUYZ       TAUZX       SIGV
  +1.76E+05  +7.99E+05  +1.61E+05  +9.667E+01  +1.091E+03  -3.843E+02  +6.082E+01  -3.045E+02  +9.465E+01  +1.419E+03
  +1.54E+05  +8.21E+05  +1.83E+05  +9.667E+01  +1.091E+03  -3.843E+02  +6.082E+01  -3.045E+02  +9.465E+01  +1.419E+03
  +1.54E+05  +7.99E+05  +1.83E+05  +9.667E+01  +1.091E+03  -3.843E+02  +6.082E+01  -3.045E+02  +9.465E+01  +1.419E+03
  +1.44E+05  +8.17E+05  +1.52E+05  +9.667E+01  +1.091E+03  -3.843E+02  +6.082E+01  -3.045E+02  +9.465E+01  +1.419E+03

element # = 94     type =4-n tetrahedron
 XX         YY         ZZ         SIGXX       SIGYY       SIGZZ       TAUXY       TAUYZ       TAUZX       SIGV
  +1.34E+04  +6.06E+05  +5.36E+03  -1.344E+02  -4.959E+03  +1.672E+02  +3.313E+02  -7.277E+02  -1.080E+02  +5.174E+03
  +3.43E+04  +5.95E+05  +2.27E+04  -1.344E+02  -4.959E+03  +1.672E+02  +3.313E+02  -7.277E+02  -1.080E+02  +5.174E+03
  +3.57E+04  +5.95E+05  +5.36E+03  -1.344E+02  -4.959E+03  +1.672E+02  +3.313E+02  -7.277E+02  -1.080E+02  +5.174E+03
  +1.34E+04  +5.85E+05  +5.36E+03  -1.344E+02  -4.959E+03  +1.672E+02  +3.313E+02  -7.277E+02  -1.080E+02  +5.174E+03

element # = 95     type =4-n tetrahedron
 XX         YY         ZZ         SIGXX       SIGYY       SIGZZ       TAUXY       TAUYZ       TAUZX       SIGV
  +7.04E+04  +9.99E+04  +1.11E+05  -3.142E+02  +9.123E+02  +2.472E+03  +6.002E+02  -2.407E+02  -8.602E+02  +3.054E+03
  +9.16E+04  +7.75E+04  +1.02E+05  -3.142E+02  +9.123E+02  +2.472E+03  +6.002E+02  -2.407E+02  -8.602E+02  +3.054E+03
  +1.04E+05  +1.17E+05  +1.19E+05  -3.142E+02  +9.123E+02  +2.472E+03  +6.002E+02  -2.407E+02  -8.602E+02  +3.054E+03
  +8.00E+04  +1.15E+05  +8.28E+04  -3.142E+02  +9.123E+02  +2.472E+03  +6.002E+02  -2.407E+02  -8.602E+02  +3.054E+03

element # = 96     type =4-n tetrahedron
 XX         YY         ZZ         SIGXX       SIGYY       SIGZZ       TAUXY       TAUYZ       TAUZX       SIGV
  +1.83E+05  +7.69E+05  +1.56E+05  -1.740E+02  +8.281E+02  -1.019E+03  +2.494E+01  -6.278E+02  -2.630E+00  +1.936E+03
  +1.61E+05  +7.47E+05  +1.78E+05  -1.740E+02  +8.281E+02  -1.019E+03  +2.494E+01  -6.278E+02  -2.630E+00  +1.936E+03
  +1.83E+05  +7.47E+05  +1.56E+05  -1.740E+02  +8.281E+02  -1.019E+03  +2.494E+01  -6.278E+02  -2.630E+00  +1.936E+03
  +1.50E+05  +7.54E+05  +1.52E+05  -1.740E+02  +8.281E+02  -1.019E+03  +2.494E+01  -6.278E+02  -2.630E+00  +1.936E+03

element # = 97     type =4-n tetrahedron
 XX         YY         ZZ         SIGXX       SIGYY       SIGZZ       TAUXY       TAUYZ       TAUZX       SIGV
  +1.37E+05  +5.46E+05  +1.58E+05  -1.219E+03  +1.794E+03  -1.434E+03  +5.661E+02  -4.939E+02  -1.289E+02  +3.394E+03
  +1.18E+05  +5.30E+05  +1.84E+05  -1.219E+03  +1.794E+03  -1.434E+03  +5.661E+02  -4.939E+02  -1.289E+02  +3.394E+03
  +1.40E+05  +5.40E+05  +1.84E+05  -1.219E+03  +1.794E+03  -1.434E+03  +5.661E+02  -4.939E+02  -1.289E+02  +3.394E+03
  +1.32E+05  +5.22E+05  +1.58E+05  -1.219E+03  +1.794E+03  -1.434E+03  +5.661E+02  -4.939E+02  -1.289E+02  +3.394E+03

element # = 98     type =4-n tetrahedron
 XX         YY         ZZ         SIGXX       SIGYY       SIGZZ       TAUXY       TAUYZ       TAUZX       SIGV
  +9.67E+04  +4.13E+05  +1.48E+04  -2.259E+03  -1.225E+04  -1.022E+03  -5.520E+01  -1.162E+03  -5.367E+02  +1.089E+04
  +7.48E+04  +3.99E+05  +3.31E+04  -2.259E+03  -1.225E+04  -1.022E+03  -5.520E+01  -1.162E+03  -5.367E+02  +1.089E+04
  +1.08E+05  +4.00E+05  +4.43E+04  -2.259E+03  -1.225E+04  -1.022E+03  -5.520E+01  -1.162E+03  -5.367E+02  +1.089E+04
  +9.67E+04  +3.92E+05  +1.48E+04  -2.259E+03  -1.225E+04  -1.022E+03  -5.520E+01  -1.162E+03  -5.367E+02  +1.089E+04

element # = 99     type =4-n tetrahedron
 XX         YY         ZZ         SIGXX       SIGYY       SIGZZ       TAUXY       TAUYZ       TAUZX       SIGV
  +1.46E+05  +6.42E+04  +7.09E+04  -1.279E+03  -8.823E+03  +5.277E+03  +1.372E+02  -3.613E+03  -6.029E+02  +1.377E+04
  +1.71E+05  +4.28E+04  +8.80E+04  -1.279E+03  -8.823E+03  +5.277E+03  +1.372E+02  -3.613E+03  -6.029E+02  +1.377E+04
  +1.48E+05  +2.44E+04  +6.64E+04  -1.279E+03  -8.823E+03  +5.277E+03  +1.372E+02  -3.613E+03  -6.029E+02  +1.377E+04
  +1.25E+05  +4.54E+04  +8.81E+04  -1.279E+03  -8.823E+03  +5.277E+03  +1.372E+02  -3.613E+03  -6.029E+02  +1.377E+04

element # = 100     type =4-n tetrahedron
 XX         YY         ZZ         SIGXX       SIGYY       SIGZZ       TAUXY       TAUYZ       TAUZX       SIGV
  +1.91E+05  +7.20E+05  +1.41E+05  +9.281E+01  +1.554E+03  -1.200E+02  +2.475E+01  -1.010E+03  -1.910E+01  +2.357E+03
  +1.63E+05  +6.92E+05  +1.35E+05  +9.281E+01  +1.554E+03  -1.200E+02  +2.475E+01  -1.010E+03  -1.910E+01  +2.357E+03
  +1.91E+05  +6.99E+05  +1.41E+05  +9.281E+01  +1.554E+03  -1.200E+02  +2.475E+01  -1.010E+03  -1.910E+01  +2.357E+03
  +1.91E+05  +7.10E+05  +1.19E+05  +9.281E+01  +1.554E+03  -1.200E+02  +2.475E+01  -1.010E+03  -1.910E+01  +2.357E+03

element # = 101     type =4-n tetrahedron
 XX         YY         ZZ         SIGXX       SIGYY       SIGZZ       TAUXY       TAUYZ       TAUZX       SIGV
  +1.35E+05  +4.53E+05  +7.49E+03  +6.342E+02  -9.286E+03  -2.309E+02  +2.978E+02  -8.916E+02  -5.653E+02  +9.705E+03
  +1.13E+05  +4.42E+05  +7.49E+03  +6.342E+02  -9.286E+03  -2.309E+02  +2.978E+02  -8.916E+02  -5.653E+02  +9.705E+03
  +1.13E+05  +4.63E+05  +7.49E+03  +6.342E+02  -9.286E+03  -2.309E+02  +2.978E+02  -8.916E+02  -5.653E+02  +9.705E+03
  +1.32E+05  +4.53E+05  +3.17E+04  +6.342E+02  -9.286E+03  -2.309E+02  +2.978E+02  -8.916E+02  -5.653E+02  +9.705E+03

element # = 102     type =4-n tetrahedron
 XX         YY         ZZ         SIGXX       SIGYY       SIGZZ       TAUXY       TAUYZ       TAUZX       SIGV
  +7.90E+04  +2.29E+05  +4.74E+04  +8.450E+02  -9.217E+03  +4.420E+02  -4.382E+02  -2.582E+03  -2.127E+01  +1.086E+04
  +6.12E+04  +2.54E+05  +4.17E+04  +8.450E+02  -9.217E+03  +4.420E+02  -4.382E+02  -2.582E+03  -2.127E+01  +1.086E+04
  +5.56E+04  +2.36E+05  +3.89E+04  +8.450E+02  -9.217E+03  +4.420E+02  -4.382E+02  -2.582E+03  -2.127E+01  +1.086E+04
  +8.33E+04  +2.38E+05  +2.05E+04  +8.450E+02  -9.217E+03  +4.420E+02  -4.382E+02  -2.582E+03  -2.127E+01  +1.086E+04

element # = 103     type =4-n tetrahedron
 XX         YY         ZZ         SIGXX       SIGYY       SIGZZ       TAUXY       TAUYZ       TAUZX       SIGV
  +1.78E+05  +9.14E+04  +8.53E+03  -2.139E+03  -2.987E+04  -1.223E+03  +1.044E+03  -3.543E+02  +1.194E+03  +2.834E+04
  +1.53E+05  +8.86E+04  +3.61E+04  -2.139E+03  -2.987E+04  -1.223E+03  +1.044E+03  -3.543E+02  +1.194E+03  +2.834E+04
  +1.55E+05  +7.38E+04  +8.53E+03  -2.139E+03  -2.987E+04  -1.223E+03  +1.044E+03  -3.543E+02  +1.194E+03  +2.834E+04
  +1.55E+05  +9.95E+04  +8.53E+03  -2.139E+03  -2.987E+04  -1.223E+03  +1.044E+03  -3.543E+02  +1.194E+03  +2.834E+04

element # = 104     type =4-n tetrahedron
 XX         YY         ZZ         SIGXX       SIGYY       SIGZZ       TAUXY       TAUYZ       TAUZX       SIGV
  +1.91E+05  +7.42E+05  +6.65E+04  +4.452E+02  +4.115E+02  +1.672E+02  +8.306E+01  -9.741E+02  -1.588E+02  +1.736E+03
  +1.60E+05  +7.50E+05  +7.50E+04  +4.452E+02  +4.115E+02  +1.672E+02  +8.306E+01  -9.741E+02  -1.588E+02  +1.736E+03
  +1.91E+05  +7.53E+05  +8.88E+04  +4.452E+02  +4.115E+02  +1.672E+02  +8.306E+01  -9.741E+02  -1.588E+02  +1.736E+03
  +1.91E+05  +7.31E+05  +8.88E+04  +4.452E+02  +4.115E+02  +1.672E+02  +8.306E+01  -9.741E+02  -1.588E+02  +1.736E+03

element # = 105     type =4-n tetrahedron
 XX         YY         ZZ         SIGXX       SIGYY       SIGZZ       TAUXY       TAUYZ       TAUZX       SIGV
  +1.12E+05  +2.77E+05  +1.51E+05  -5.249E+02  +5.005E+03  -1.039E+02  -1.623E+02  -2.373E+03  -1.392E+03  +7.156E+03
  +1.40E+05  +2.67E+05  +1.74E+05  -5.249E+02  +5.005E+03  -1.039E+02  -1.623E+02  -2.373E+03  -1.392E+03  +7.156E+03
  +1.37E+05  +2.91E+05  +1.47E+05  -5.249E+02  +5.005E+03  -1.039E+02  -1.623E+02  -2.373E+03  -1.392E+03  +7.156E+03
  +1.36E+05  +2.54E+05  +1.43E+05  -5.249E+02  +5.005E+03  -1.039E+02  -1.623E+02  -2.373E+03  -1.392E+03  +7.156E+03

element # = 106     type =4-n tetrahedron
 XX         YY         ZZ         SIGXX       SIGYY       SIGZZ       TAUXY       TAUYZ       TAUZX       SIGV
  +3.64E+04  +7.80E+05  +1.88E+05  +2.391E+01  +1.385E+03  -3.669E+02  -4.883E+01  -3.625E+02  +4.667E+01  +1.716E+03
  +1.40E+04  +7.80E+05  +1.66E+05  +2.391E+01  +1.385E+03  -3.669E+02  -4.883E+01  -3.625E+02  +4.667E+01  +1.716E+03
  +1.40E+04  +7.69E+05  +1.88E+05  +2.391E+01  +1.385E+03  -3.669E+02  -4.883E+01  -3.625E+02  +4.667E+01  +1.716E+03
  +3.70E+04  +7.68E+05  +1.73E+05  +2.391E+01  +1.385E+03  -3.669E+02  -4.883E+01  -3.625E+02  +4.667E+01  +1.716E+03

element # = 107     type =4-n tetrahedron
 XX         YY         ZZ         SIGXX       SIGYY       SIGZZ       TAUXY       TAUYZ       TAUZX       SIGV
  +9.78E+04  +6.71E+05  +7.71E+04  -3.139E+01  -1.106E+03  -8.319E+02  -1.230E+02  -1.636E+03  +1.047E+02  +3.008E+03
  +1.03E+05  +6.35E+05  +9.78E+04  -3.139E+01  -1.106E+03  -8.319E+02  -1.230E+02  -1.636E+03  +1.047E+02  +3.008E+03
  +1.20E+05  +6.60E+05  +6.93E+04  -3.139E+01  -1.106E+03  -8.319E+02  -1.230E+02  -1.636E+03  +1.047E+02  +3.008E+03
  +8.72E+04  +6.42E+05  +7.50E+04  -3.139E+01  -1.106E+03  -8.319E+02  -1.230E+02  -1.636E+03  +1.047E+02  +3.008E+03

element # = 108     type =4-n tetrahedron
 XX         YY         ZZ         SIGXX       SIGYY       SIGZZ       TAUXY       TAUYZ       TAUZX       SIGV
  +1.53E+05  +7.01E+05  +1.34E+05  +8.728E+01  +9.996E+02  -4.195E+02  +7.652E+01  -8.192E+02  -6.284E+01  +1.896E+03
  +1.49E+05  +7.35E+05  +1.36E+05  +8.728E+01  +9.996E+02  -4.195E+02  +7.652E+01  -8.192E+02  -6.284E+01  +1.896E+03
  +1.81E+05  +7.18E+05  +1.18E+05  +8.728E+01  +9.996E+02  -4.195E+02  +7.652E+01  -8.192E+02  -6.284E+01  +1.896E+03
  +1.81E+05  +7.29E+05  +1.40E+05  +8.728E+01  +9.996E+02  -4.195E+02  +7.652E+01  -8.192E+02  -6.284E+01  +1.896E+03

element # = 109     type =4-n tetrahedron
 XX         YY         ZZ         SIGXX       SIGYY       SIGZZ       TAUXY       TAUYZ       TAUZX       SIGV
  +1.82E+05  +8.57E+05  +1.18E+05  +1.949E+01  +3.526E+02  -2.650E+02  -1.509E+01  -4.906E+02  +8.814E+00  +1.005E+03
  +1.56E+05  +8.69E+05  +1.41E+05  +1.949E+01  +3.526E+02  -2.650E+02  -1.509E+01  -4.906E+02  +8.814E+00  +1.005E+03
  +1.82E+05  +8.46E+05  +1.40E+05  +1.949E+01  +3.526E+02  -2.650E+02  -1.509E+01  -4.906E+02  +8.814E+00  +1.005E+03
  +1.50E+05  +8.42E+05  +1.32E+05  +1.949E+01  +3.526E+02  -2.650E+02  -1.509E+01  -4.906E+02  +8.814E+00  +1.005E+03

element # = 110     type =4-n tetrahedron
 XX         YY         ZZ         SIGXX       SIGYY       SIGZZ       TAUXY       TAUYZ       TAUZX       SIGV
  +1.90E+05  +3.73E+05  +5.91E+04  -1.125E+03  -6.661E+03  -6.623E+02  -3.786E+02  -2.248E+03  -8.279E+02  +7.146E+03
  +1.90E+05  +3.94E+05  +5.91E+04  -1.125E+03  -6.661E+03  -6.623E+02  -3.786E+02  -2.248E+03  -8.279E+02  +7.146E+03
  +1.90E+05  +3.83E+05  +8.15E+04  -1.125E+03  -6.661E+03  -6.623E+02  -3.786E+02  -2.248E+03  -8.279E+02  +7.146E+03
  +1.56E+05  +3.92E+05  +6.63E+04  -1.125E+03  -6.661E+03  -6.623E+02  -3.786E+02  -2.248E+03  -8.279E+02  +7.146E+03

element # = 111     type =4-n tetrahedron
 XX         YY         ZZ         SIGXX       SIGYY       SIGZZ       TAUXY       TAUYZ       TAUZX       SIGV
  +8.43E+04  +5.46E+05  +1.69E+05  +5.741E+02  +7.100E+03  -6.019E+00  -6.039E+01  -6.085E+02  -4.818E+01  +6.917E+03
  +9.10E+04  +5.58E+05  +1.93E+05  +5.741E+02  +7.100E+03  -6.019E+00  -6.039E+01  -6.085E+02  -4.818E+01  +6.917E+03
  +9.10E+04  +5.37E+05  +1.93E+05  +5.741E+02  +7.100E+03  -6.019E+00  -6.039E+01  -6.085E+02  -4.818E+01  +6.917E+03
  +6.87E+04  +5.47E+05  +1.93E+05  +5.741E+02  +7.100E+03  -6.019E+00  -6.039E+01  -6.085E+02  -4.818E+01  +6.917E+03

element # = 112     type =4-n tetrahedron
 XX         YY         ZZ         SIGXX       SIGYY       SIGZZ       TAUXY       TAUYZ       TAUZX       SIGV
  +5.87E+04  +7.17E+05  +8.07E+04  +4.133E+02  +7.261E+01  -7.570E+01  +6.132E+01  -1.076E+03  +2.475E+02  +1.964E+03
  +5.59E+04  +6.93E+05  +9.33E+04  +4.133E+02  +7.261E+01  -7.570E+01  +6.132E+01  -1.076E+03  +2.475E+02  +1.964E+03
  +7.49E+04  +6.99E+05  +7.64E+04  +4.133E+02  +7.261E+01  -7.570E+01  +6.132E+01  -1.076E+03  +2.475E+02  +1.964E+03
  +5.28E+04  +7.04E+05  +6.41E+04  +4.133E+02  +7.261E+01  -7.570E+01  +6.132E+01  -1.076E+03  +2.475E+02  +1.964E+03

element # = 113     type =4-n tetrahedron
 XX         YY         ZZ         SIGXX       SIGYY       SIGZZ       TAUXY       TAUYZ       TAUZX       SIGV
  +1.36E+05  +9.78E+05  +1.54E+05  -8.392E+01  -3.365E+01  -4.649E+02  +1.096E+01  -7.143E+01  +1.105E+01  +4.276E+02
  +1.13E+05  +9.59E+05  +1.62E+05  -8.392E+01  -3.365E+01  -4.649E+02  +1.096E+01  -7.143E+01  +1.105E+01  +4.276E+02
  +1.36E+05  +9.53E+05  +1.77E+05  -8.392E+01  -3.365E+01  -4.649E+02  +1.096E+01  -7.143E+01  +1.105E+01  +4.276E+02
  +1.22E+05  +9.53E+05  +1.39E+05  -8.392E+01  -3.365E+01  -4.649E+02  +1.096E+01  -7.143E+01  +1.105E+01  +4.276E+02

element # = 114     type =4-n tetrahedron
 XX         YY         ZZ         SIGXX       SIGYY       SIGZZ       TAUXY       TAUYZ       TAUZX       SIGV
  +6.22E+04  +1.31E+05  +1.70E+05  -7.494E+02  +1.776E+04  -1.674E+03  +6.663E+02  -1.029E+03  +2.922E+02  +1.911E+04
  +6.09E+04  +1.19E+05  +1.90E+05  -7.494E+02  +1.776E+04  -1.674E+03  +6.663E+02  -1.029E+03  +2.922E+02  +1.911E+04
  +8.30E+04  +1.30E+05  +1.90E+05  -7.494E+02  +1.776E+04  -1.674E+03  +6.663E+02  -1.029E+03  +2.922E+02  +1.911E+04
  +7.10E+04  +1.14E+05  +1.76E+05  -7.494E+02  +1.776E+04  -1.674E+03  +6.663E+02  -1.029E+03  +2.922E+02  +1.911E+04

element # = 115     type =4-n tetrahedron
 XX         YY         ZZ         SIGXX       SIGYY       SIGZZ       TAUXY       TAUYZ       TAUZX       SIGV
  +2.69E+04  +2.55E+05  +1.03E+05  +2.603E+02  +2.447E+03  +2.245E+02  -1.848E+02  -1.919E+03  +5.000E+02  +4.094E+03
  +6.36E+03  +2.53E+05  +1.08E+05  +2.603E+02  +2.447E+03  +2.245E+02  -1.848E+02  -1.919E+03  +5.000E+02  +4.094E+03
  +6.36E+03  +2.70E+05  +9.17E+04  +2.603E+02  +2.447E+03  +2.245E+02  -1.848E+02  -1.919E+03  +5.000E+02  +4.094E+03
  +6.36E+03  +2.76E+05  +1.10E+05  +2.603E+02  +2.447E+03  +2.245E+02  -1.848E+02  -1.919E+03  +5.000E+02  +4.094E+03

element # = 116     type =4-n tetrahedron
 XX         YY         ZZ         SIGXX       SIGYY       SIGZZ       TAUXY       TAUYZ       TAUZX       SIGV
  +8.54E+04  +9.60E+05  +1.52E+05  -6.544E+01  -7.159E+00  -4.572E+02  -3.475E+00  -6.989E+01  +1.197E+01  +4.414E+02
  +6.20E+04  +9.58E+05  +1.33E+05  -6.544E+01  -7.159E+00  -4.572E+02  -3.475E+00  -6.989E+01  +1.197E+01  +4.414E+02
  +9.38E+04  +9.54E+05  +1.28E+05  -6.544E+01  -7.159E+00  -4.572E+02  -3.475E+00  -6.989E+01  +1.197E+01  +4.414E+02
  +6.55E+04  +9.79E+05  +1.43E+05  -6.544E+01  -7.159E+00  -4.572E+02  -3.475E+00  -6.989E+01  +1.197E+01  +4.414E+02

element # = 117     type =4-n tetrahedron
 XX         YY         ZZ         SIGXX       SIGYY       SIGZZ       TAUXY       TAUYZ       TAUZX       SIGV
  +1.05E+05  +2.70E+05  +8.61E+04  -5.230E+02  -4.211E+03  -1.863E+03  -1.219E+03  -2.773E+03  +2.912E+02  +6.183E+03
  +1.05E+05  +2.35E+05  +7.31E+04  -5.230E+02  -4.211E+03  -1.863E+03  -1.219E+03  -2.773E+03  +2.912E+02  +6.183E+03
  +1.27E+05  +2.42E+05  +1.04E+05  -5.230E+02  -4.211E+03  -1.863E+03  -1.219E+03  -2.773E+03  +2.912E+02  +6.183E+03
  +1.26E+05  +2.55E+05  +7.19E+04  -5.230E+02  -4.211E+03  -1.863E+03  -1.219E+03  -2.773E+03  +2.912E+02  +6.183E+03

element # = 118     type =4-n tetrahedron
 XX         YY         ZZ         SIGXX       SIGYY       SIGZZ       TAUXY       TAUYZ       TAUZX       SIGV
  +1.90E+05  +8.24E+05  +1.11E+05  -1.943E+02  -1.932E+02  -5.582E+02  -3.187E+01  -6.175E+02  -7.637E+00  +1.131E+03
  +1.90E+05  +8.47E+05  +1.11E+05  -1.943E+02  -1.932E+02  -5.582E+02  -3.187E+01  -6.175E+02  -7.637E+00  +1.131E+03
  +1.90E+05  +8.35E+05  +1.33E+05  -1.943E+02  -1.932E+02  -5.582E+02  -3.187E+01  -6.175E+02  -7.637E+00  +1.131E+03
  +1.58E+05  +8.31E+05  +1.25E+05  -1.943E+02  -1.932E+02  -5.582E+02  -3.187E+01  -6.175E+02  -7.637E+00  +1.131E+03

element # = 119     type =4-n tetrahedron
 XX         YY         ZZ         SIGXX       SIGYY       SIGZZ       TAUXY       TAUYZ       TAUZX       SIGV
  +4.19E+04  +1.13E+05  +1.82E+05  +1.867E+03  +1.750E+04  +1.146E+03  -4.328E+02  -1.296E+02  -1.213E+03  +1.616E+04
  +1.93E+04  +1.14E+05  +1.60E+05  +1.867E+03  +1.750E+04  +1.146E+03  -4.328E+02  -1.296E+02  -1.213E+03  +1.616E+04
  +3.55E+04  +9.76E+04  +1.67E+05  +1.867E+03  +1.750E+04  +1.146E+03  -4.328E+02  -1.296E+02  -1.213E+03  +1.616E+04
  +4.33E+04  +1.25E+05  +1.63E+05  +1.867E+03  +1.750E+04  +1.146E+03  -4.328E+02  -1.296E+02  -1.213E+03  +1.616E+04

element # = 120     type =4-n tetrahedron
 XX         YY         ZZ         SIGXX       SIGYY       SIGZZ       TAUXY       TAUYZ       TAUZX       SIGV
  +8.42E+04  +2.74E+04  +1.07E+05  -2.101E+02  -4.902E+02  -2.101E+02  +1.686E+02  -3.308E+03  +0.000E+00  +5.744E+03
  +5.95E+04  +6.47E+03  +1.07E+05  -2.101E+02  -4.902E+02  -2.101E+02  +1.686E+02  -3.308E+03  +0.000E+00  +5.744E+03
  +6.35E+04  +6.47E+03  +1.28E+05  -2.101E+02  -4.902E+02  -2.101E+02  +1.686E+02  -3.308E+03  +0.000E+00  +5.744E+03
  +8.51E+04  +6.47E+03  +1.07E+05  -2.101E+02  -4.902E+02  -2.101E+02  +1.686E+02  -3.308E+03  +0.000E+00  +5.744E+03

element # = 121     type =4-n tetrahedron
 XX         YY         ZZ         SIGXX       SIGYY       SIGZZ       TAUXY       TAUYZ       TAUZX       SIGV
  +1.77E+05  +9.93E+05  +1.94E+05  -8.050E+00  +3.728E+01  -4.709E+02  +6.454E+00  -3.777E+01  +2.629E+00  +4.916E+02
  +1.94E+05  +9.93E+05  +1.94E+05  -8.050E+00  +3.728E+01  -4.709E+02  +6.454E+00  -3.777E+01  +2.629E+00  +4.916E+02
  +1.94E+05  +9.93E+05  +1.77E+05  -8.050E+00  +3.728E+01  -4.709E+02  +6.454E+00  -3.777E+01  +2.629E+00  +4.916E+02
  +1.94E+05  +9.72E+05  +1.94E+05  -8.050E+00  +3.728E+01  -4.709E+02  +6.454E+00  -3.777E+01  +2.629E+00  +4.916E+02

element # = 122     type =4-n tetrahedron
 XX         YY         ZZ         SIGXX       SIGYY       SIGZZ       TAUXY       TAUYZ       TAUZX       SIGV
  +4.07E+04  +5.51E+05  +1.88E+05  -2.771E+02  +3.991E+03  -5.759E+02  -2.455E+02  -4.251E+02  -4.721E+01  +4.507E+03
  +1.83E+04  +5.62E+05  +1.88E+05  -2.771E+02  +3.991E+03  -5.759E+02  -2.455E+02  -4.251E+02  -4.721E+01  +4.507E+03
  +3.61E+04  +5.42E+05  +1.73E+05  -2.771E+02  +3.991E+03  -5.759E+02  -2.455E+02  -4.251E+02  -4.721E+01  +4.507E+03
  +3.75E+04  +5.61E+05  +1.63E+05  -2.771E+02  +3.991E+03  -5.759E+02  -2.455E+02  -4.251E+02  -4.721E+01  +4.507E+03

element # = 123     type =4-n tetrahedron
 XX         YY         ZZ         SIGXX       SIGYY       SIGZZ       TAUXY       TAUYZ       TAUZX       SIGV
  +1.53E+05  +6.75E+04  +5.05E+04  -2.858E+02  -1.162E+04  -1.391E+03  +1.378E+02  +4.300E+02  +1.422E+03  +1.113E+04
  +1.54E+05  +5.27E+04  +2.29E+04  -2.858E+02  -1.162E+04  -1.391E+03  +1.378E+02  +4.300E+02  +1.422E+03  +1.113E+04
  +1.55E+05  +2.77E+04  +4.60E+04  -2.858E+02  -1.162E+04  -1.391E+03  +1.378E+02  +4.300E+02  +1.422E+03  +1.113E+04
  +1.78E+05  +5.27E+04  +4.64E+04  -2.858E+02  -1.162E+04  -1.391E+03  +1.378E+02  +4.300E+02  +1.422E+03  +1.113E+04

element # = 124     type =4-n tetrahedron
 XX         YY         ZZ         SIGXX       SIGYY       SIGZZ       TAUXY       TAUYZ       TAUZX       SIGV
  +1.12E+05  +1.44E+04  +1.48E+05  +5.062E+03  +1.588E+04  +2.307E+03  -3.356E+01  -7.944E+02  -1.104E+03  +1.265E+04
  +1.30E+05  +4.02E+04  +1.49E+05  +5.062E+03  +1.588E+04  +2.307E+03  -3.356E+01  -7.944E+02  -1.104E+03  +1.265E+04
  +1.11E+05  +3.54E+04  +1.23E+05  +5.062E+03  +1.588E+04  +2.307E+03  -3.356E+01  -7.944E+02  -1.104E+03  +1.265E+04
  +1.34E+05  +1.44E+04  +1.44E+05  +5.062E+03  +1.588E+04  +2.307E+03  -3.356E+01  -7.944E+02  -1.104E+03  +1.265E+04

element # = 125     type =4-n tetrahedron
 XX         YY         ZZ         SIGXX       SIGYY       SIGZZ       TAUXY       TAUYZ       TAUZX       SIGV
  +1.12E+05  +7.43E+05  +5.59E+04  +2.106E+02  -5.732E+02  +2.504E+02  +1.118E+02  -7.526E+02  -2.384E+01  +1.545E+03
  +8.01E+04  +7.40E+05  +4.20E+04  +2.106E+02  -5.732E+02  +2.504E+02  +1.118E+02  -7.526E+02  -2.384E+01  +1.545E+03
  +9.45E+04  +7.14E+05  +5.80E+04  +2.106E+02  -5.732E+02  +2.504E+02  +1.118E+02  -7.526E+02  -2.384E+01  +1.545E+03
  +9.78E+04  +7.23E+05  +2.50E+04  +2.106E+02  -5.732E+02  +2.504E+02  +1.118E+02  -7.526E+02  -2.384E+01  +1.545E+03

element # = 126     type =4-n tetrahedron
 XX         YY         ZZ         SIGXX       SIGYY       SIGZZ       TAUXY       TAUYZ       TAUZX       SIGV
  +6.51E+04  +7.93E+05  +1.65E+05  +4.236E+01  +1.065E+03  -4.705E+02  -1.511E+02  -2.760E+02  +2.214E+01  +1.460E+03
  +8.14E+04  +7.73E+05  +1.88E+05  +4.236E+01  +1.065E+03  -4.705E+02  -1.511E+02  -2.760E+02  +2.214E+01  +1.460E+03
  +5.96E+04  +7.72E+05  +1.73E+05  +4.236E+01  +1.065E+03  -4.705E+02  -1.511E+02  -2.760E+02  +2.214E+01  +1.460E+03
  +5.90E+04  +7.83E+05  +1.88E+05  +4.236E+01  +1.065E+03  -4.705E+02  -1.511E+02  -2.760E+02  +2.214E+01  +1.460E+03

element # = 127     type =4-n tetrahedron
 XX         YY         ZZ         SIGXX       SIGYY       SIGZZ       TAUXY       TAUYZ       TAUZX       SIGV
  +1.32E+05  +7.96E+03  +1.87E+05  +8.961E+03  +2.091E+04  +8.961E+03  -9.762E+02  -5.437E+03  +0.000E+00  +1.531E+04
  +1.42E+05  +3.37E+04  +1.69E+05  +8.961E+03  +2.091E+04  +8.961E+03  -9.762E+02  -5.437E+03  +0.000E+00  +1.531E+04
  +1.45E+05  +7.96E+03  +1.64E+05  +8.961E+03  +2.091E+04  +8.961E+03  -9.762E+02  -5.437E+03  +0.000E+00  +1.531E+04
  +1.50E+05  +7.96E+03  +1.87E+05  +8.961E+03  +2.091E+04  +8.961E+03  -9.762E+02  -5.437E+03  +0.000E+00  +1.531E+04

element # = 128     type =4-n tetrahedron
 XX         YY         ZZ         SIGXX       SIGYY       SIGZZ       TAUXY       TAUYZ       TAUZX       SIGV
  +1.15E+05  +7.96E+03  +1.62E+05  +8.961E+03  +2.091E+04  +8.961E+03  -9.762E+02  -5.437E+03  +0.000E+00  +1.531E+04
  +1.33E+05  +3.37E+04  +1.63E+05  +8.961E+03  +2.091E+04  +8.961E+03  -9.762E+02  -5.437E+03  +0.000E+00  +1.531E+04
  +1.37E+05  +7.96E+03  +1.58E+05  +8.961E+03  +2.091E+04  +8.961E+03  -9.762E+02  -5.437E+03  +0.000E+00  +1.531E+04
  +1.24E+05  +7.96E+03  +1.81E+05  +8.961E+03  +2.091E+04  +8.961E+03  -9.762E+02  -5.437E+03  +0.000E+00  +1.531E+04

element # = 129     type =4-n tetrahedron
 XX         YY         ZZ         SIGXX       SIGYY       SIGZZ       TAUXY       TAUYZ       TAUZX       SIGV
  +1.92E+05  +5.83E+05  +8.65E+04  +9.736E+02  +7.320E+02  +3.844E+02  -9.946E+01  -1.563E+03  -1.653E+02  +2.775E+03
  +1.92E+05  +5.94E+05  +6.42E+04  +9.736E+02  +7.320E+02  +3.844E+02  -9.946E+01  -1.563E+03  -1.653E+02  +2.775E+03
  +1.92E+05  +6.05E+05  +8.65E+04  +9.736E+02  +7.320E+02  +3.844E+02  -9.946E+01  -1.563E+03  -1.653E+02  +2.775E+03
  +1.65E+05  +5.89E+05  +6.52E+04  +9.736E+02  +7.320E+02  +3.844E+02  -9.946E+01  -1.563E+03  -1.653E+02  +2.775E+03

element # = 130     type =4-n tetrahedron
 XX         YY         ZZ         SIGXX       SIGYY       SIGZZ       TAUXY       TAUYZ       TAUZX       SIGV
  +1.64E+05  +7.55E+05  +6.92E+03  -1.981E+02  -1.835E+03  -3.169E+02  -1.547E+02  -2.018E+02  -3.336E+01  +1.642E+03
  +1.86E+05  +7.77E+05  +2.93E+04  -1.981E+02  -1.835E+03  -3.169E+02  -1.547E+02  -2.018E+02  -3.336E+01  +1.642E+03
  +1.64E+05  +7.77E+05  +6.92E+03  -1.981E+02  -1.835E+03  -3.169E+02  -1.547E+02  -2.018E+02  -3.336E+01  +1.642E+03
  +1.86E+05  +7.66E+05  +6.92E+03  -1.981E+02  -1.835E+03  -3.169E+02  -1.547E+02  -2.018E+02  -3.336E+01  +1.642E+03

element # = 131     type =4-n tetrahedron
 XX         YY         ZZ         SIGXX       SIGYY       SIGZZ       TAUXY       TAUYZ       TAUZX       SIGV
  +1.20E+05  +6.86E+05  +1.55E+05  +1.888E+02  +2.878E+03  -3.973E+02  +3.712E+02  -4.331E+02  +1.210E+02  +3.189E+03
  +9.58E+04  +7.04E+05  +1.60E+05  +1.888E+02  +2.878E+03  -3.973E+02  +3.712E+02  -4.331E+02  +1.210E+02  +3.189E+03
  +1.03E+05  +7.03E+05  +1.84E+05  +1.888E+02  +2.878E+03  -3.973E+02  +3.712E+02  -4.331E+02  +1.210E+02  +3.189E+03
  +1.03E+05  +6.82E+05  +1.84E+05  +1.888E+02  +2.878E+03  -3.973E+02  +3.712E+02  -4.331E+02  +1.210E+02  +3.189E+03

element # = 132     type =4-n tetrahedron
 XX         YY         ZZ         SIGXX       SIGYY       SIGZZ       TAUXY       TAUYZ       TAUZX       SIGV
  +1.55E+04  +4.81E+05  +4.51E+04  +2.017E+02  -4.577E+03  +1.319E+03  -6.559E+01  -1.682E+03  -3.786E+01  +6.158E+03
  +3.79E+04  +4.61E+05  +2.26E+04  +2.017E+02  -4.577E+03  +1.319E+03  -6.559E+01  -1.682E+03  -3.786E+01  +6.158E+03
  +1.55E+04  +4.59E+05  +4.51E+04  +2.017E+02  -4.577E+03  +1.319E+03  -6.559E+01  -1.682E+03  -3.786E+01  +6.158E+03
  +4.33E+04  +4.68E+05  +5.10E+04  +2.017E+02  -4.577E+03  +1.319E+03  -6.559E+01  -1.682E+03  -3.786E+01  +6.158E+03

element # = 133     type =4-n tetrahedron
 XX         YY         ZZ         SIGXX       SIGYY       SIGZZ       TAUXY       TAUYZ       TAUZX       SIGV
  +1.73E+05  +8.59E+05  +1.06E+05  +1.173E+02  +4.141E+02  -3.943E+01  -1.126E-01  -4.961E+02  +6.060E+01  +9.532E+02
  +1.48E+05  +8.71E+05  +1.29E+05  +1.173E+02  +4.141E+02  -3.943E+01  -1.126E-01  -4.961E+02  +6.060E+01  +9.532E+02
  +1.41E+05  +8.43E+05  +1.20E+05  +1.173E+02  +4.141E+02  -3.943E+01  -1.126E-01  -4.961E+02  +6.060E+01  +9.532E+02
  +1.46E+05  +8.53E+05  +8.90E+04  +1.173E+02  +4.141E+02  -3.943E+01  -1.126E-01  -4.961E+02  +6.060E+01  +9.532E+02

element # = 134     type =4-n tetrahedron
 XX         YY         ZZ         SIGXX       SIGYY       SIGZZ       TAUXY       TAUYZ       TAUZX       SIGV
  +1.46E+05  +8.94E+05  +1.26E+05  -1.930E+01  -5.556E+01  -3.333E+02  -7.950E+00  -3.334E+02  +5.395E+00  +6.498E+02
  +1.72E+05  +9.05E+05  +1.04E+05  -1.930E+01  -5.556E+01  -3.333E+02  -7.950E+00  -3.334E+02  +5.395E+00  +6.498E+02
  +1.34E+05  +9.18E+05  +1.11E+05  -1.930E+01  -5.556E+01  -3.333E+02  -7.950E+00  -3.334E+02  +5.395E+00  +6.498E+02
  +1.44E+05  +8.76E+05  +8.69E+04  -1.930E+01  -5.556E+01  -3.333E+02  -7.950E+00  -3.334E+02  +5.395E+00  +6.498E+02

element # = 135     type =4-n tetrahedron
 XX         YY         ZZ         SIGXX       SIGYY       SIGZZ       TAUXY       TAUYZ       TAUZX       SIGV
  +1.92E+05  +4.03E+05  +1.36E+05  -1.986E+03  -9.097E+02  -1.528E+03  +3.422E+02  -2.064E+03  -3.812E+02  +3.800E+03
  +1.92E+05  +3.93E+05  +1.13E+05  -1.986E+03  -9.097E+02  -1.528E+03  +3.422E+02  -2.064E+03  -3.812E+02  +3.800E+03
  +1.92E+05  +4.14E+05  +1.13E+05  -1.986E+03  -9.097E+02  -1.528E+03  +3.422E+02  -2.064E+03  -3.812E+02  +3.800E+03
  +1.65E+05  +3.99E+05  +1.35E+05  -1.986E+03  -9.097E+02  -1.528E+03  +3.422E+02  -2.064E+03  -3.812E+02  +3.800E+03

element # = 136     type =4-n tetrahedron
 XX         YY         ZZ         SIGXX       SIGYY       SIGZZ       TAUXY       TAUYZ       TAUZX       SIGV
  +1.91E+05  +9.07E+05  +5.77E+04  -5.693E+01  -1.905E+02  -2.072E+02  -7.523E+00  -2.916E+02  +1.101E+01  +5.253E+02
  +1.91E+05  +9.18E+05  +7.99E+04  -5.693E+01  -1.905E+02  -2.072E+02  -7.523E+00  -2.916E+02  +1.101E+01  +5.253E+02
  +1.63E+05  +9.34E+05  +5.81E+04  -5.693E+01  -1.905E+02  -2.072E+02  -7.523E+00  -2.916E+02  +1.101E+01  +5.253E+02
  +1.91E+05  +9.32E+05  +5.86E+04  -5.693E+01  -1.905E+02  -2.072E+02  -7.523E+00  -2.916E+02  +1.101E+01  +5.253E+02

element # = 137     type =4-n tetrahedron
 XX         YY         ZZ         SIGXX       SIGYY       SIGZZ       TAUXY       TAUYZ       TAUZX       SIGV
  +1.27E+04  +2.20E+05  +1.70E+05  +1.261E+03  +1.606E+04  -1.505E+02  -3.104E+02  -1.253E+03  -3.826E+02  +1.573E+04
  +3.51E+04  +2.19E+05  +1.88E+05  +1.261E+03  +1.606E+04  -1.505E+02  -3.104E+02  -1.253E+03  -3.826E+02  +1.573E+04
  +1.27E+04  +2.30E+05  +1.88E+05  +1.261E+03  +1.606E+04  -1.505E+02  -3.104E+02  -1.253E+03  -3.826E+02  +1.573E+04
  +3.15E+04  +2.26E+05  +1.68E+05  +1.261E+03  +1.606E+04  -1.505E+02  -3.104E+02  -1.253E+03  -3.826E+02  +1.573E+04

element # = 138     type =4-n tetrahedron
 XX         YY         ZZ         SIGXX       SIGYY       SIGZZ       TAUXY       TAUYZ       TAUZX       SIGV
  +9.63E+04  +8.75E+05  +1.78E+05  +1.395E+00  +2.643E+02  -4.324E+02  -1.547E+01  -2.627E+02  -1.100E+00  +7.609E+02
  +1.15E+05  +8.86E+05  +1.56E+05  +1.395E+00  +2.643E+02  -4.324E+02  -1.547E+01  -2.627E+02  -1.100E+00  +7.609E+02
  +8.48E+04  +8.97E+05  +1.61E+05  +1.395E+00  +2.643E+02  -4.324E+02  -1.547E+01  -2.627E+02  -1.100E+00  +7.609E+02
  +7.69E+04  +8.82E+05  +1.46E+05  +1.395E+00  +2.643E+02  -4.324E+02  -1.547E+01  -2.627E+02  -1.100E+00  +7.609E+02

element # = 139     type =4-n tetrahedron
 XX         YY         ZZ         SIGXX       SIGYY       SIGZZ       TAUXY       TAUYZ       TAUZX       SIGV
  +9.22E+04  +3.46E+05  +1.90E+05  +1.206E+03  +1.421E+04  +6.601E+02  -2.780E+02  -1.378E+03  -2.786E+02  +1.352E+04
  +9.22E+04  +3.67E+05  +1.90E+05  +1.206E+03  +1.421E+04  +6.601E+02  -2.780E+02  -1.378E+03  -2.786E+02  +1.352E+04
  +6.98E+04  +3.57E+05  +1.90E+05  +1.206E+03  +1.421E+04  +6.601E+02  -2.780E+02  -1.378E+03  -2.786E+02  +1.352E+04
  +8.93E+04  +3.55E+05  +1.59E+05  +1.206E+03  +1.421E+04  +6.601E+02  -2.780E+02  -1.378E+03  -2.786E+02  +1.352E+04

element # = 140     type =4-n tetrahedron
 XX         YY         ZZ         SIGXX       SIGYY       SIGZZ       TAUXY       TAUYZ       TAUZX       SIGV
  +1.14E+04  +6.85E+05  +5.51E+04  -8.764E+01  -1.611E+03  -1.554E+02  -3.771E+01  -1.082E+03  -9.115E+00  +2.395E+03
  +3.07E+04  +6.91E+05  +5.33E+04  -8.764E+01  -1.611E+03  -1.554E+02  -3.771E+01  -1.082E+03  -9.115E+00  +2.395E+03
  +2.89E+04  +6.71E+05  +5.08E+04  -8.764E+01  -1.611E+03  -1.554E+02  -3.771E+01  -1.082E+03  -9.115E+00  +2.395E+03
  +1.14E+04  +6.74E+05  +7.74E+04  -8.764E+01  -1.611E+03  -1.554E+02  -3.771E+01  -1.082E+03  -9.115E+00  +2.395E+03

element # = 141     type =4-n tetrahedron
 XX         YY         ZZ         SIGXX       SIGYY       SIGZZ       TAUXY       TAUYZ       TAUZX       SIGV
  +1.02E+05  +8.79E+05  +1.88E+05  +8.727E+01  +5.295E+02  -3.521E+02  +1.618E+01  -1.901E+02  -1.896E+01  +8.326E+02
  +1.02E+05  +9.02E+05  +1.88E+05  +8.727E+01  +5.295E+02  -3.521E+02  +1.618E+01  -1.901E+02  -1.896E+01  +8.326E+02
  +9.08E+04  +9.02E+05  +1.71E+05  +8.727E+01  +5.295E+02  -3.521E+02  +1.618E+01  -1.901E+02  -1.896E+01  +8.326E+02
  +1.21E+05  +8.91E+05  +1.66E+05  +8.727E+01  +5.295E+02  -3.521E+02  +1.618E+01  -1.901E+02  -1.896E+01  +8.326E+02

element # = 142     type =4-n tetrahedron
 XX         YY         ZZ         SIGXX       SIGYY       SIGZZ       TAUXY       TAUYZ       TAUZX       SIGV
  +1.50E+05  +9.63E+05  +6.48E+04  -1.105E+01  -4.796E+01  -1.756E+02  -1.812E+01  -9.414E+01  +1.636E+01  +2.252E+02
  +1.55E+05  +9.87E+05  +6.50E+04  -1.105E+01  -4.796E+01  -1.756E+02  -1.812E+01  -9.414E+01  +1.636E+01  +2.252E+02
  +1.78E+05  +9.69E+05  +8.66E+04  -1.105E+01  -4.796E+01  -1.756E+02  -1.812E+01  -9.414E+01  +1.636E+01  +2.252E+02
  +1.59E+05  +9.87E+05  +8.66E+04  -1.105E+01  -4.796E+01  -1.756E+02  -1.812E+01  -9.414E+01  +1.636E+01  +2.252E+02

element # = 143     type =4-n tetrahedron
 XX         YY         ZZ         SIGXX       SIGYY       SIGZZ       TAUXY       TAUYZ       TAUZX       SIGV
  +5.23E+04  +9.28E+05  +1.90E+05  -6.438E+00  +2.036E+02  -4.857E+02  -6.958E+00  -9.408E+01  +8.987E+00  +6.336E+02
  +5.15E+04  +9.03E+05  +1.90E+05  -6.438E+00  +2.036E+02  -4.857E+02  -6.958E+00  -9.408E+01  +8.987E+00  +6.336E+02
  +6.21E+04  +9.14E+05  +1.73E+05  -6.438E+00  +2.036E+02  -4.857E+02  -6.958E+00  -9.408E+01  +8.987E+00  +6.336E+02
  +4.31E+04  +9.16E+05  +1.73E+05  -6.438E+00  +2.036E+02  -4.857E+02  -6.958E+00  -9.408E+01  +8.987E+00  +6.336E+02

element # = 144     type =4-n tetrahedron
 XX         YY         ZZ         SIGXX       SIGYY       SIGZZ       TAUXY       TAUYZ       TAUZX       SIGV
  +7.98E+04  +2.08E+05  +4.16E+04  -8.547E+02  -1.625E+04  +2.939E+01  +6.587E+02  -1.628E+03  +2.796E+02  +1.616E+04
  +8.41E+04  +1.95E+05  +1.47E+04  -8.547E+02  -1.625E+04  +2.939E+01  +6.587E+02  -1.628E+03  +2.796E+02  +1.616E+04
  +6.18E+04  +2.07E+05  +1.47E+04  -8.547E+02  -1.625E+04  +2.939E+01  +6.587E+02  -1.628E+03  +2.796E+02  +1.616E+04
  +5.91E+04  +1.96E+05  +3.56E+04  -8.547E+02  -1.625E+04  +2.939E+01  +6.587E+02  -1.628E+03  +2.796E+02  +1.616E+04

element # = 145     type =4-n tetrahedron
 XX         YY         ZZ         SIGXX       SIGYY       SIGZZ       TAUXY       TAUYZ       TAUZX       SIGV
  +6.18E+04  +9.27E+05  +1.95E+05  -1.008E+02  +1.688E+02  -5.235E+02  -5.960E+01  -1.269E+02  -7.507E+00  +6.515E+02
  +8.30E+04  +9.13E+05  +1.95E+05  -1.008E+02  +1.688E+02  -5.235E+02  -5.960E+01  -1.269E+02  -7.507E+00  +6.515E+02
  +7.15E+04  +9.13E+05  +1.78E+05  -1.008E+02  +1.688E+02  -5.235E+02  -5.960E+01  -1.269E+02  -7.507E+00  +6.515E+02
  +6.09E+04  +9.02E+05  +1.95E+05  -1.008E+02  +1.688E+02  -5.235E+02  -5.960E+01  -1.269E+02  -7.507E+00  +6.515E+02

element # = 146     type =4-n tetrahedron
 XX         YY         ZZ         SIGXX       SIGYY       SIGZZ       TAUXY       TAUYZ       TAUZX       SIGV
  +8.96E+04  +8.79E+05  +1.95E+05  -1.266E+01  +4.757E+02  -4.314E+02  -8.678E+01  -1.194E+02  +1.551E+01  +8.273E+02
  +8.96E+04  +9.02E+05  +1.95E+05  -1.266E+01  +4.757E+02  -4.314E+02  -8.678E+01  -1.194E+02  +1.551E+01  +8.273E+02
  +6.75E+04  +8.90E+05  +1.95E+05  -1.266E+01  +4.757E+02  -4.314E+02  -8.678E+01  -1.194E+02  +1.551E+01  +8.273E+02
  +7.81E+04  +9.02E+05  +1.78E+05  -1.266E+01  +4.757E+02  -4.314E+02  -8.678E+01  -1.194E+02  +1.551E+01  +8.273E+02

element # = 147     type =4-n tetrahedron
 XX         YY         ZZ         SIGXX       SIGYY       SIGZZ       TAUXY       TAUYZ       TAUZX       SIGV
  +2.74E+04  +6.05E+05  +5.04E+04  -1.575E+02  -2.803E+03  -4.270E+02  -7.461E+01  -1.439E+03  +1.470E+01  +3.548E+03
  +6.46E+03  +6.16E+05  +7.78E+04  -1.575E+02  -2.803E+03  -4.270E+02  -7.461E+01  -1.439E+03  +1.470E+01  +3.548E+03
  +6.46E+03  +6.05E+05  +5.54E+04  -1.575E+02  -2.803E+03  -4.270E+02  -7.461E+01  -1.439E+03  +1.470E+01  +3.548E+03
  +6.46E+03  +6.26E+05  +5.54E+04  -1.575E+02  -2.803E+03  -4.270E+02  -7.461E+01  -1.439E+03  +1.470E+01  +3.548E+03

element # = 148     type =4-n tetrahedron
 XX         YY         ZZ         SIGXX       SIGYY       SIGZZ       TAUXY       TAUYZ       TAUZX       SIGV
  +1.77E+05  +2.64E+05  +1.52E+05  +7.991E+00  +5.081E+03  -4.468E+02  -5.224E+02  -2.375E+03  +4.679E+02  +6.830E+03
  +1.53E+05  +2.88E+05  +1.48E+05  +7.991E+00  +5.081E+03  -4.468E+02  -5.224E+02  -2.375E+03  +4.679E+02  +6.830E+03
  +1.55E+05  +2.64E+05  +1.75E+05  +7.991E+00  +5.081E+03  -4.468E+02  -5.224E+02  -2.375E+03  +4.679E+02  +6.830E+03
  +1.51E+05  +2.51E+05  +1.43E+05  +7.991E+00  +5.081E+03  -4.468E+02  -5.224E+02  -2.375E+03  +4.679E+02  +6.830E+03

element # = 149     type =4-n tetrahedron
 XX         YY         ZZ         SIGXX       SIGYY       SIGZZ       TAUXY       TAUYZ       TAUZX       SIGV
  +1.76E+04  +8.87E+05  +1.51E+05  -3.380E+01  +2.190E+02  -4.322E+02  +2.794E+00  -2.791E+02  +5.525E+00  +7.464E+02
  +3.52E+04  +8.80E+05  +1.60E+05  -3.380E+01  +2.190E+02  -4.322E+02  +2.794E+00  -2.791E+02  +5.525E+00  +7.464E+02
  +3.18E+04  +9.01E+05  +1.57E+05  -3.380E+01  +2.190E+02  -4.322E+02  +2.794E+00  -2.791E+02  +5.525E+00  +7.464E+02
  +4.29E+04  +8.84E+05  +1.42E+05  -3.380E+01  +2.190E+02  -4.322E+02  +2.794E+00  -2.791E+02  +5.525E+00  +7.464E+02

element # = 150     type =4-n tetrahedron
 XX         YY         ZZ         SIGXX       SIGYY       SIGZZ       TAUXY       TAUYZ       TAUZX       SIGV
  +7.80E+04  +6.02E+05  +1.20E+05  -4.494E+00  +1.199E+03  -4.129E+02  -2.325E+01  -1.711E+03  +3.133E+02  +3.344E+03
  +5.08E+04  +5.83E+05  +1.31E+05  -4.494E+00  +1.199E+03  -4.129E+02  -2.325E+01  -1.711E+03  +3.133E+02  +3.344E+03
  +5.11E+04  +5.84E+05  +1.05E+05  -4.494E+00  +1.199E+03  -4.129E+02  -2.325E+01  -1.711E+03  +3.133E+02  +3.344E+03
  +4.89E+04  +6.04E+05  +1.21E+05  -4.494E+00  +1.199E+03  -4.129E+02  -2.325E+01  -1.711E+03  +3.133E+02  +3.344E+03

element # = 151     type =4-n tetrahedron
 XX         YY         ZZ         SIGXX       SIGYY       SIGZZ       TAUXY       TAUYZ       TAUZX       SIGV
  +6.11E+04  +9.03E+05  +1.59E+05  +3.488E+01  +2.445E+02  -3.835E+02  -1.003E+01  -2.833E+02  +3.055E+01  +7.421E+02
  +4.54E+04  +8.84E+05  +1.62E+05  +3.488E+01  +2.445E+02  -3.835E+02  -1.003E+01  -2.833E+02  +3.055E+01  +7.421E+02
  +5.32E+04  +8.87E+05  +1.44E+05  +3.488E+01  +2.445E+02  -3.835E+02  -1.003E+01  -2.833E+02  +3.055E+01  +7.421E+02
  +4.21E+04  +9.05E+05  +1.59E+05  +3.488E+01  +2.445E+02  -3.835E+02  -1.003E+01  -2.833E+02  +3.055E+01  +7.421E+02

element # = 152     type =4-n tetrahedron
 XX         YY         ZZ         SIGXX       SIGYY       SIGZZ       TAUXY       TAUYZ       TAUZX       SIGV
  +8.20E+04  +8.72E+05  +1.81E+05  -1.166E+02  +2.291E+02  -4.450E+02  +4.292E+00  -2.775E+02  +1.030E+00  +7.562E+02
  +5.49E+04  +8.76E+05  +1.67E+05  -1.166E+02  +2.291E+02  -4.450E+02  +4.292E+00  -2.775E+02  +1.030E+00  +7.562E+02
  +6.26E+04  +8.79E+05  +1.49E+05  -1.166E+02  +2.291E+02  -4.450E+02  +4.292E+00  -2.775E+02  +1.030E+00  +7.562E+02
  +7.05E+04  +8.95E+05  +1.64E+05  -1.166E+02  +2.291E+02  -4.450E+02  +4.292E+00  -2.775E+02  +1.030E+00  +7.562E+02

element # = 153     type =4-n tetrahedron
 XX         YY         ZZ         SIGXX       SIGYY       SIGZZ       TAUXY       TAUYZ       TAUZX       SIGV
  +5.40E+04  +7.35E+05  +1.83E+05  -1.532E+02  +1.200E+03  -5.095E+02  +5.443E+01  -4.008E+02  +8.589E+01  +1.718E+03
  +6.92E+04  +7.25E+05  +1.59E+05  -1.532E+02  +1.200E+03  -5.095E+02  +5.443E+01  -4.008E+02  +8.589E+01  +1.718E+03
  +5.46E+04  +7.45E+05  +1.67E+05  -1.532E+02  +1.200E+03  -5.095E+02  +5.443E+01  -4.008E+02  +8.589E+01  +1.718E+03
  +5.11E+04  +7.21E+05  +1.66E+05  -1.532E+02  +1.200E+03  -5.095E+02  +5.443E+01  -4.008E+02  +8.589E+01  +1.718E+03

element # = 154     type =4-n tetrahedron
 XX         YY         ZZ         SIGXX       SIGYY       SIGZZ       TAUXY       TAUYZ       TAUZX       SIGV
  +7.60E+04  +5.40E+05  +1.64E+05  +5.541E+02  +6.599E+03  -1.611E+02  +1.133E-01  -6.513E+02  -1.014E+01  +6.531E+03
  +8.27E+04  +5.30E+05  +1.88E+05  +5.541E+02  +6.599E+03  -1.611E+02  +1.133E-01  -6.513E+02  -1.014E+01  +6.531E+03
  +5.58E+04  +5.32E+05  +1.73E+05  +5.541E+02  +6.599E+03  -1.611E+02  +1.133E-01  -6.513E+02  -1.014E+01  +6.531E+03
  +6.03E+04  +5.41E+05  +1.88E+05  +5.541E+02  +6.599E+03  -1.611E+02  +1.133E-01  -6.513E+02  -1.014E+01  +6.531E+03

element # = 155     type =4-n tetrahedron
 XX         YY         ZZ         SIGXX       SIGYY       SIGZZ       TAUXY       TAUYZ       TAUZX       SIGV
  +3.93E+04  +7.10E+05  +1.78E+05  -3.500E+01  +2.475E+03  -5.390E+02  -7.034E+01  -5.271E+02  -7.400E+01  +2.947E+03
  +4.22E+04  +7.03E+05  +1.95E+05  -3.500E+01  +2.475E+03  -5.390E+02  -7.034E+01  -5.271E+02  -7.400E+01  +2.947E+03
  +1.98E+04  +7.13E+05  +1.95E+05  -3.500E+01  +2.475E+03  -5.390E+02  -7.034E+01  -5.271E+02  -7.400E+01  +2.947E+03
  +4.22E+04  +7.24E+05  +1.95E+05  -3.500E+01  +2.475E+03  -5.390E+02  -7.034E+01  -5.271E+02  -7.400E+01  +2.947E+03

element # = 156     type =4-n tetrahedron
 XX         YY         ZZ         SIGXX       SIGYY       SIGZZ       TAUXY       TAUYZ       TAUZX       SIGV
  +1.91E+05  +5.32E+05  +1.42E+05  +5.052E+02  +4.492E+03  +3.824E+02  +1.726E+01  -1.362E+03  -2.839E+01  +4.687E+03
  +1.91E+05  +5.21E+05  +1.20E+05  +5.052E+02  +4.492E+03  +3.824E+02  +1.726E+01  -1.362E+03  -2.839E+01  +4.687E+03
  +1.61E+05  +5.13E+05  +1.38E+05  +5.052E+02  +4.492E+03  +3.824E+02  +1.726E+01  -1.362E+03  -2.839E+01  +4.687E+03
  +1.91E+05  +5.11E+05  +1.42E+05  +5.052E+02  +4.492E+03  +3.824E+02  +1.726E+01  -1.362E+03  -2.839E+01  +4.687E+03

element # = 157     type =4-n tetrahedron
 XX         YY         ZZ         SIGXX       SIGYY       SIGZZ       TAUXY       TAUYZ       TAUZX       SIGV
  +1.82E+04  +5.21E+04  +8.92E+03  -2.224E+02  -1.891E+04  +4.556E+02  -9.429E+02  -2.301E+03  +3.916E+02  +1.953E+04
  +3.60E+04  +6.74E+04  +2.27E+04  -2.224E+02  -1.891E+04  +4.556E+02  -9.429E+02  -2.301E+03  +3.916E+02  +1.953E+04
  +4.16E+04  +5.58E+04  +8.92E+03  -2.224E+02  -1.891E+04  +4.556E+02  -9.429E+02  -2.301E+03  +3.916E+02  +1.953E+04
  +3.57E+04  +4.77E+04  +2.41E+04  -2.224E+02  -1.891E+04  +4.556E+02  -9.429E+02  -2.301E+03  +3.916E+02  +1.953E+04

element # = 158     type =4-n tetrahedron
 XX         YY         ZZ         SIGXX       SIGYY       SIGZZ       TAUXY       TAUYZ       TAUZX       SIGV
  +3.52E+04  +1.73E+04  +1.01E+05  -5.333E+02  -1.100E+03  -1.420E+03  -2.961E+02  +4.810E+02  +9.826E+02  +2.111E+03
  +3.26E+04  +3.57E+04  +9.08E+04  -5.333E+02  -1.100E+03  -1.420E+03  -2.961E+02  +4.810E+02  +9.826E+02  +2.111E+03
  +3.26E+04  +3.60E+04  +1.13E+05  -5.333E+02  -1.100E+03  -1.420E+03  -2.961E+02  +4.810E+02  +9.826E+02  +2.111E+03
  +1.61E+04  +3.62E+04  +1.01E+05  -5.333E+02  -1.100E+03  -1.420E+03  -2.961E+02  +4.810E+02  +9.826E+02  +2.111E+03

element # = 159     type =4-n tetrahedron
 XX         YY         ZZ         SIGXX       SIGYY       SIGZZ       TAUXY       TAUYZ       TAUZX       SIGV
  +1.28E+04  +6.01E+04  +4.25E+03  -3.255E+03  -2.677E+04  -2.083E+03  -7.759E+02  -4.484E+02  +6.291E+02  +2.419E+04
  +3.06E+04  +7.54E+04  +1.80E+04  -3.255E+03  -2.677E+04  -2.083E+03  -7.759E+02  -4.484E+02  +6.291E+02  +2.419E+04
  +1.28E+04  +8.14E+04  +4.25E+03  -3.255E+03  -2.677E+04  -2.083E+03  -7.759E+02  -4.484E+02  +6.291E+02  +2.419E+04
  +3.62E+04  +6.38E+04  +4.25E+03  -3.255E+03  -2.677E+04  -2.083E+03  -7.759E+02  -4.484E+02  +6.291E+02  +2.419E+04

element # = 160     type =4-n tetrahedron
 XX         YY         ZZ         SIGXX       SIGYY       SIGZZ       TAUXY       TAUYZ       TAUZX       SIGV
  +4.16E+04  +6.77E+05  +5.60E+03  -2.252E+02  -3.566E+03  -1.690E+02  +6.701E+01  -5.706E+02  -7.897E+01  +3.516E+03
  +3.67E+04  +6.63E+05  +2.37E+04  -2.252E+02  -3.566E+03  -1.690E+02  +6.701E+01  -5.706E+02  -7.897E+01  +3.516E+03
  +4.16E+04  +6.55E+05  +5.60E+03  -2.252E+02  -3.566E+03  -1.690E+02  +6.701E+01  -5.706E+02  -7.897E+01  +3.516E+03
  +1.92E+04  +6.66E+05  +5.60E+03  -2.252E+02  -3.566E+03  -1.690E+02  +6.701E+01  -5.706E+02  -7.897E+01  +3.516E+03

element # = 161     type =4-n tetrahedron
 XX         YY         ZZ         SIGXX       SIGYY       SIGZZ       TAUXY       TAUYZ       TAUZX       SIGV
  +8.76E+04  +7.30E+05  +5.27E+03  -1.799E+02  -2.334E+03  -3.054E+02  +8.120E+01  -3.472E+02  +1.894E+01  +2.184E+03
  +6.99E+04  +7.47E+05  +2.23E+04  -1.799E+02  -2.334E+03  -3.054E+02  +8.120E+01  -3.472E+02  +1.894E+01  +2.184E+03
  +6.53E+04  +7.41E+05  +5.27E+03  -1.799E+02  -2.334E+03  -3.054E+02  +8.120E+01  -3.472E+02  +1.894E+01  +2.184E+03
  +8.76E+04  +7.52E+05  +5.27E+03  -1.799E+02  -2.334E+03  -3.054E+02  +8.120E+01  -3.472E+02  +1.894E+01  +2.184E+03

element # = 162     type =4-n tetrahedron
 XX         YY         ZZ         SIGXX       SIGYY       SIGZZ       TAUXY       TAUYZ       TAUZX       SIGV
  +5.35E+04  +5.67E+04  +1.49E+04  -2.558E+03  -1.943E+04  +1.038E+03  -7.878E+02  -2.215E+03  +1.413E+03  +1.951E+04
  +6.85E+04  +5.57E+04  +3.41E+04  -2.558E+03  -1.943E+04  +1.038E+03  -7.878E+02  -2.215E+03  +1.413E+03  +1.951E+04
  +4.76E+04  +4.85E+04  +3.00E+04  -2.558E+03  -1.943E+04  +1.038E+03  -7.878E+02  -2.215E+03  +1.413E+03  +1.951E+04
  +4.79E+04  +6.83E+04  +2.86E+04  -2.558E+03  -1.943E+04  +1.038E+03  -7.878E+02  -2.215E+03  +1.413E+03  +1.951E+04

element # = 163     type =4-n tetrahedron
 XX         YY         ZZ         SIGXX       SIGYY       SIGZZ       TAUXY       TAUYZ       TAUZX       SIGV
  +1.65E+05  +1.79E+05  +6.62E+04  -1.326E+03  -1.171E+04  -1.880E+03  +9.747E+01  -3.311E+03  -2.166E+03  +1.222E+04
  +1.92E+05  +1.75E+05  +5.92E+04  -1.326E+03  -1.171E+04  -1.880E+03  +9.747E+01  -3.311E+03  -2.166E+03  +1.222E+04
  +1.92E+05  +1.86E+05  +8.15E+04  -1.326E+03  -1.171E+04  -1.880E+03  +9.747E+01  -3.311E+03  -2.166E+03  +1.222E+04
  +1.92E+05  +1.97E+05  +5.92E+04  -1.326E+03  -1.171E+04  -1.880E+03  +9.747E+01  -3.311E+03  -2.166E+03  +1.222E+04

element # = 164     type =4-n tetrahedron
 XX         YY         ZZ         SIGXX       SIGYY       SIGZZ       TAUXY       TAUYZ       TAUZX       SIGV
  +5.28E+04  +4.97E+04  +7.51E+04  -2.292E+02  -7.512E+03  +6.813E+02  -2.507E+02  -5.016E+03  +4.591E+02  +1.170E+04
  +7.47E+04  +5.53E+04  +5.95E+04  -2.292E+02  -7.512E+03  +6.813E+02  -2.507E+02  -5.016E+03  +4.591E+02  +1.170E+04
  +8.00E+04  +5.22E+04  +8.50E+04  -2.292E+02  -7.512E+03  +6.813E+02  -2.507E+02  -5.016E+03  +4.591E+02  +1.170E+04
  +5.48E+04  +6.90E+04  +7.17E+04  -2.292E+02  -7.512E+03  +6.813E+02  -2.507E+02  -5.016E+03  +4.591E+02  +1.170E+04

element # = 165     type =4-n tetrahedron
 XX         YY         ZZ         SIGXX       SIGYY       SIGZZ       TAUXY       TAUYZ       TAUZX       SIGV
  +8.00E+04  +4.51E+05  +1.30E+05  +1.599E+03  +6.897E+03  +2.033E+02  -2.030E+02  -1.839E+03  +6.150E+02  +6.987E+03
  +5.34E+04  +4.45E+05  +1.50E+05  +1.599E+03  +6.897E+03  +2.033E+02  -2.030E+02  -1.839E+03  +6.150E+02  +6.987E+03
  +4.98E+04  +4.52E+05  +1.29E+05  +1.599E+03  +6.897E+03  +2.033E+02  -2.030E+02  -1.839E+03  +6.150E+02  +6.987E+03
  +6.05E+04  +4.65E+05  +1.49E+05  +1.599E+03  +6.897E+03  +2.033E+02  -2.030E+02  -1.839E+03  +6.150E+02  +6.987E+03

element # = 166     type =4-n tetrahedron
 XX         YY         ZZ         SIGXX       SIGYY       SIGZZ       TAUXY       TAUYZ       TAUZX       SIGV
  +1.93E+05  +7.70E+05  +1.64E+05  -2.037E+02  +8.975E+02  -7.596E+02  +1.910E+02  -4.616E+02  +4.321E+01  +1.699E+03
  +1.71E+05  +7.49E+05  +1.86E+05  -2.037E+02  +8.975E+02  -7.596E+02  +1.910E+02  -4.616E+02  +4.321E+01  +1.699E+03
  +1.93E+05  +7.59E+05  +1.86E+05  -2.037E+02  +8.975E+02  -7.596E+02  +1.910E+02  -4.616E+02  +4.321E+01  +1.699E+03
  +1.93E+05  +7.49E+05  +1.64E+05  -2.037E+02  +8.975E+02  -7.596E+02  +1.910E+02  -4.616E+02  +4.321E+01  +1.699E+03

element # = 167     type =4-n tetrahedron
 XX         YY         ZZ         SIGXX       SIGYY       SIGZZ       TAUXY       TAUYZ       TAUZX       SIGV
  +5.40E+04  +8.77E+05  +1.77E+05  -3.371E+01  +4.708E+02  -4.928E+02  -8.383E+01  -1.319E+02  +4.384E+00  +8.777E+02
  +8.12E+04  +8.73E+05  +1.91E+05  -3.371E+01  +4.708E+02  -4.928E+02  -8.383E+01  -1.319E+02  +4.384E+00  +8.777E+02
  +5.91E+04  +8.85E+05  +1.91E+05  -3.371E+01  +4.708E+02  -4.928E+02  -8.383E+01  -1.319E+02  +4.384E+00  +8.777E+02
  +6.97E+04  +8.96E+05  +1.74E+05  -3.371E+01  +4.708E+02  -4.928E+02  -8.383E+01  -1.319E+02  +4.384E+00  +8.777E+02

element # = 168     type =4-n tetrahedron
 XX         YY         ZZ         SIGXX       SIGYY       SIGZZ       TAUXY       TAUYZ       TAUZX       SIGV
  +3.80E+04  +3.46E+05  +1.54E+05  -6.845E+01  +7.908E+03  -6.751E+02  -8.444E+01  -1.752E+03  -4.237E+02  +8.866E+03
  +4.26E+04  +3.72E+05  +1.53E+05  -6.845E+01  +7.908E+03  -6.751E+02  -8.444E+01  -1.752E+03  -4.237E+02  +8.866E+03
  +1.85E+04  +3.58E+05  +1.55E+05  -6.845E+01  +7.908E+03  -6.751E+02  -8.444E+01  -1.752E+03  -4.237E+02  +8.866E+03
  +3.48E+04  +3.59E+05  +1.39E+05  -6.845E+01  +7.908E+03  -6.751E+02  -8.444E+01  -1.752E+03  -4.237E+02  +8.866E+03

element # = 169     type =4-n tetrahedron
 XX         YY         ZZ         SIGXX       SIGYY       SIGZZ       TAUXY       TAUYZ       TAUZX       SIGV
  +1.14E+05  +4.60E+05  +1.37E+05  -2.080E+02  +3.526E+03  -9.824E+02  -5.970E+02  -2.011E+03  -4.772E+01  +5.536E+03
  +1.12E+05  +4.72E+05  +1.74E+05  -2.080E+02  +3.526E+03  -9.824E+02  -5.970E+02  -2.011E+03  -4.772E+01  +5.536E+03
  +1.27E+05  +4.85E+05  +1.48E+05  -2.080E+02  +3.526E+03  -9.824E+02  -5.970E+02  -2.011E+03  -4.772E+01  +5.536E+03
  +1.34E+05  +4.59E+05  +1.53E+05  -2.080E+02  +3.526E+03  -9.824E+02  -5.970E+02  -2.011E+03  -4.772E+01  +5.536E+03

element # = 170     type =4-n tetrahedron
 XX         YY         ZZ         SIGXX       SIGYY       SIGZZ       TAUXY       TAUYZ       TAUZX       SIGV
  +6.03E+04  +9.04E+05  +1.69E+05  -2.066E+01  +2.389E+02  -5.603E+02  -1.279E+01  -1.166E+02  -1.951E+00  +7.348E+02
  +4.13E+04  +9.06E+05  +1.68E+05  -2.066E+01  +2.389E+02  -5.603E+02  -1.279E+01  -1.166E+02  -1.951E+00  +7.348E+02
  +4.96E+04  +8.92E+05  +1.85E+05  -2.066E+01  +2.389E+02  -5.603E+02  -1.279E+01  -1.166E+02  -1.951E+00  +7.348E+02
  +4.46E+04  +8.85E+05  +1.71E+05  -2.066E+01  +2.389E+02  -5.603E+02  -1.279E+01  -1.166E+02  -1.951E+00  +7.348E+02

element # = 171     type =4-n tetrahedron
 XX         YY         ZZ         SIGXX       SIGYY       SIGZZ       TAUXY       TAUYZ       TAUZX       SIGV
  +1.07E+05  +2.06E+05  +4.42E+04  +6.235E+02  -1.260E+04  +9.150E+02  -1.315E+03  -1.978E+03  +1.709E+02  +1.400E+04
  +1.33E+05  +2.04E+05  +1.74E+04  +6.235E+02  -1.260E+04  +9.150E+02  -1.315E+03  -1.978E+03  +1.709E+02  +1.400E+04
  +1.11E+05  +1.93E+05  +1.74E+04  +6.235E+02  -1.260E+04  +9.150E+02  -1.315E+03  -1.978E+03  +1.709E+02  +1.400E+04
  +1.29E+05  +1.86E+05  +4.68E+04  +6.235E+02  -1.260E+04  +9.150E+02  -1.315E+03  -1.978E+03  +1.709E+02  +1.400E+04

element # = 172     type =4-n tetrahedron
 XX         YY         ZZ         SIGXX       SIGYY       SIGZZ       TAUXY       TAUYZ       TAUZX       SIGV
  +1.40E+04  +7.52E+05  +1.01E+05  +6.511E+01  +1.605E+02  -2.126E+02  +7.548E+00  -7.711E+02  +3.200E+01  +1.378E+03
  +3.42E+04  +7.52E+05  +1.12E+05  +6.511E+01  +1.605E+02  -2.126E+02  +7.548E+00  -7.711E+02  +3.200E+01  +1.378E+03
  +3.92E+04  +7.39E+05  +9.36E+04  +6.511E+01  +1.605E+02  -2.126E+02  +7.548E+00  -7.711E+02  +3.200E+01  +1.378E+03
  +1.40E+04  +7.31E+05  +1.01E+05  +6.511E+01  +1.605E+02  -2.126E+02  +7.548E+00  -7.711E+02  +3.200E+01  +1.378E+03

element # = 173     type =4-n tetrahedron
 XX         YY         ZZ         SIGXX       SIGYY       SIGZZ       TAUXY       TAUYZ       TAUZX       SIGV
  +8.27E+04  +6.75E+05  +2.22E+04  +1.296E+02  -1.549E+03  +2.230E+02  +1.539E+01  -7.815E+02  +6.800E+01  +2.198E+03
  +7.94E+04  +6.87E+05  +5.51E+04  +1.296E+02  -1.549E+03  +2.230E+02  +1.539E+01  -7.815E+02  +6.800E+01  +2.198E+03
  +5.55E+04  +6.72E+05  +4.03E+04  +1.296E+02  -1.549E+03  +2.230E+02  +1.539E+01  -7.815E+02  +6.800E+01  +2.198E+03
  +5.73E+04  +6.92E+05  +4.28E+04  +1.296E+02  -1.549E+03  +2.230E+02  +1.539E+01  -7.815E+02  +6.800E+01  +2.198E+03

element # = 174     type =4-n tetrahedron
 XX         YY         ZZ         SIGXX       SIGYY       SIGZZ       TAUXY       TAUYZ       TAUZX       SIGV
  +1.66E+05  +4.43E+05  +5.94E+04  -1.014E+03  -5.892E+03  -7.468E+02  -2.106E+02  -2.196E+03  -4.970E+02  +6.364E+03
  +1.92E+05  +4.21E+05  +5.75E+04  -1.014E+03  -5.892E+03  -7.468E+02  -2.106E+02  -2.196E+03  -4.970E+02  +6.364E+03
  +1.92E+05  +4.32E+05  +7.98E+04  -1.014E+03  -5.892E+03  -7.468E+02  -2.106E+02  -2.196E+03  -4.970E+02  +6.364E+03
  +1.92E+05  +4.43E+05  +5.75E+04  -1.014E+03  -5.892E+03  -7.468E+02  -2.106E+02  -2.196E+03  -4.970E+02  +6.364E+03

element # = 175     type =4-n tetrahedron
 XX         YY         ZZ         SIGXX       SIGYY       SIGZZ       TAUXY       TAUYZ       TAUZX       SIGV
  +6.01E+04  +3.38E+05  +5.31E+04  +1.045E+02  -7.703E+03  +7.820E+02  +9.047E+01  -2.257E+03  +7.530E+02  +9.150E+03
  +6.07E+04  +3.71E+05  +5.03E+04  +1.045E+02  -7.703E+03  +7.820E+02  +9.047E+01  -2.257E+03  +7.530E+02  +9.150E+03
  +9.34E+04  +3.45E+05  +5.80E+04  +1.045E+02  -7.703E+03  +7.820E+02  +9.047E+01  -2.257E+03  +7.530E+02  +9.150E+03
  +6.06E+04  +3.51E+05  +6.98E+04  +1.045E+02  -7.703E+03  +7.820E+02  +9.047E+01  -2.257E+03  +7.530E+02  +9.150E+03

element # = 176     type =4-n tetrahedron
 XX         YY         ZZ         SIGXX       SIGYY       SIGZZ       TAUXY       TAUYZ       TAUZX       SIGV
  +9.28E+04  +5.55E+05  +1.76E+04  +1.525E+02  -5.605E+03  +1.428E+02  +7.014E+00  -9.424E+02  -1.320E+01  +5.980E+03
  +7.27E+04  +5.35E+05  +3.77E+04  +1.525E+02  -5.605E+03  +1.428E+02  +7.014E+00  -9.424E+02  -1.320E+01  +5.980E+03
  +8.96E+04  +5.45E+05  +5.42E+04  +1.525E+02  -5.605E+03  +1.428E+02  +7.014E+00  -9.424E+02  -1.320E+01  +5.980E+03
  +9.28E+04  +5.34E+05  +1.76E+04  +1.525E+02  -5.605E+03  +1.428E+02  +7.014E+00  -9.424E+02  -1.320E+01  +5.980E+03

element # = 177     type =4-n tetrahedron
 XX         YY         ZZ         SIGXX       SIGYY       SIGZZ       TAUXY       TAUYZ       TAUZX       SIGV
  +1.11E+05  +7.94E+05  +9.54E+03  -1.264E+02  -1.365E+03  -7.554E+01  -1.923E+01  -4.565E+02  +1.044E+02  +1.503E+03
  +1.11E+05  +7.73E+05  +9.54E+03  -1.264E+02  -1.365E+03  -7.554E+01  -1.923E+01  -4.565E+02  +1.044E+02  +1.503E+03
  +1.25E+05  +7.71E+05  +4.04E+04  -1.264E+02  -1.365E+03  -7.554E+01  -1.923E+01  -4.565E+02  +1.044E+02  +1.503E+03
  +1.34E+05  +7.83E+05  +9.54E+03  -1.264E+02  -1.365E+03  -7.554E+01  -1.923E+01  -4.565E+02  +1.044E+02  +1.503E+03

element # = 178     type =4-n tetrahedron
 XX         YY         ZZ         SIGXX       SIGYY       SIGZZ       TAUXY       TAUYZ       TAUZX       SIGV
  +1.93E+05  +5.85E+05  +1.93E+05  +2.221E+02  +5.830E+03  -4.680E+01  +8.726E+01  -8.697E+02  -3.045E+02  +5.967E+03
  +1.93E+05  +6.06E+05  +1.93E+05  +2.221E+02  +5.830E+03  -4.680E+01  +8.726E+01  -8.697E+02  -3.045E+02  +5.967E+03
  +1.71E+05  +5.95E+05  +1.93E+05  +2.221E+02  +5.830E+03  -4.680E+01  +8.726E+01  -8.697E+02  -3.045E+02  +5.967E+03
  +1.93E+05  +5.95E+05  +1.71E+05  +2.221E+02  +5.830E+03  -4.680E+01  +8.726E+01  -8.697E+02  -3.045E+02  +5.967E+03

element # = 179     type =4-n tetrahedron
 XX         YY         ZZ         SIGXX       SIGYY       SIGZZ       TAUXY       TAUYZ       TAUZX       SIGV
  +4.09E+04  +3.62E+05  +9.23E+04  +6.494E+02  +7.582E+00  +1.029E+01  +2.559E+02  -3.122E+03  -3.116E+02  +5.491E+03
  +1.83E+04  +3.70E+05  +9.23E+04  +6.494E+02  +7.582E+00  +1.029E+01  +2.559E+02  -3.122E+03  -3.116E+02  +5.491E+03
  +3.86E+04  +3.87E+05  +9.93E+04  +6.494E+02  +7.582E+00  +1.029E+01  +2.559E+02  -3.122E+03  -3.116E+02  +5.491E+03
  +3.46E+04  +3.66E+05  +1.10E+05  +6.494E+02  +7.582E+00  +1.029E+01  +2.559E+02  -3.122E+03  -3.116E+02  +5.491E+03

element # = 180     type =4-n tetrahedron
 XX         YY         ZZ         SIGXX       SIGYY       SIGZZ       TAUXY       TAUYZ       TAUZX       SIGV
  +1.75E+04  +1.04E+04  +1.55E+05  +5.988E+03  +1.460E+04  +3.652E+03  +2.162E+03  -9.196E+02  +6.563E+02  +1.084E+04
  +3.41E+04  +2.91E+04  +1.40E+05  +5.988E+03  +1.460E+04  +3.652E+03  +2.162E+03  -9.196E+02  +6.563E+02  +1.084E+04
  +4.06E+04  +1.04E+04  +1.50E+05  +5.988E+03  +1.460E+04  +3.652E+03  +2.162E+03  -9.196E+02  +6.563E+02  +1.084E+04
  +3.47E+04  +2.56E+04  +1.59E+05  +5.988E+03  +1.460E+04  +3.652E+03  +2.162E+03  -9.196E+02  +6.563E+02  +1.084E+04

element # = 181     type =4-n tetrahedron
 XX         YY         ZZ         SIGXX       SIGYY       SIGZZ       TAUXY       TAUYZ       TAUZX       SIGV
  +1.64E+05  +4.69E+05  +6.91E+03  -1.222E+03  -9.678E+03  -1.775E+03  -5.253E+02  -2.967E+01  -1.862E+02  +8.251E+03
  +1.86E+05  +4.79E+05  +6.91E+03  -1.222E+03  -9.678E+03  -1.775E+03  -5.253E+02  -2.967E+01  -1.862E+02  +8.251E+03
  +1.86E+05  +4.90E+05  +2.93E+04  -1.222E+03  -9.678E+03  -1.775E+03  -5.253E+02  -2.967E+01  -1.862E+02  +8.251E+03
  +1.64E+05  +4.90E+05  +6.91E+03  -1.222E+03  -9.678E+03  -1.775E+03  -5.253E+02  -2.967E+01  -1.862E+02  +8.251E+03

element # = 182     type =4-n tetrahedron
 XX         YY         ZZ         SIGXX       SIGYY       SIGZZ       TAUXY       TAUYZ       TAUZX       SIGV
  +1.16E+04  +2.15E+05  +7.71E+04  +1.124E+03  -3.322E+03  +1.117E+03  -6.437E+01  -1.765E+03  -1.766E+02  +5.403E+03
  +2.87E+04  +2.30E+05  +5.92E+04  +1.124E+03  -3.322E+03  +1.117E+03  -6.437E+01  -1.765E+03  -1.766E+02  +5.403E+03
  +3.22E+04  +2.35E+05  +8.70E+04  +1.124E+03  -3.322E+03  +1.117E+03  -6.437E+01  -1.765E+03  -1.766E+02  +5.403E+03
  +1.16E+04  +2.32E+05  +7.23E+04  +1.124E+03  -3.322E+03  +1.117E+03  -6.437E+01  -1.765E+03  -1.766E+02  +5.403E+03

element # = 183     type =4-n tetrahedron
 XX         YY         ZZ         SIGXX       SIGYY       SIGZZ       TAUXY       TAUYZ       TAUZX       SIGV
  +2.34E+04  +9.93E+05  +5.53E+03  +3.268E+00  -4.549E+01  -3.031E+01  +8.830E-01  -3.909E+01  -2.526E+00  +8.046E+01
  +5.53E+03  +9.93E+05  +2.34E+04  +3.268E+00  -4.549E+01  -3.031E+01  +8.830E-01  -3.909E+01  -2.526E+00  +8.046E+01
  +5.53E+03  +9.72E+05  +5.53E+03  +3.268E+00  -4.549E+01  -3.031E+01  +8.830E-01  -3.909E+01  -2.526E+00  +8.046E+01
  +5.53E+03  +9.93E+05  +5.53E+03  +3.268E+00  -4.549E+01  -3.031E+01  +8.830E-01  -3.909E+01  -2.526E+00  +8.046E+01

element # = 184     type =4-n tetrahedron
 XX         YY         ZZ         SIGXX       SIGYY       SIGZZ       TAUXY       TAUYZ       TAUZX       SIGV
  +1.05E+05  +2.95E+05  +1.84E+05  +2.234E+03  +1.553E+04  -6.486E+02  -1.547E+03  -1.667E+03  +1.532E+02  +1.546E+04
  +1.05E+05  +3.17E+05  +1.84E+05  +2.234E+03  +1.553E+04  -6.486E+02  -1.547E+03  -1.667E+03  +1.532E+02  +1.546E+04
  +9.95E+04  +2.94E+05  +1.61E+05  +2.234E+03  +1.553E+04  -6.486E+02  -1.547E+03  -1.667E+03  +1.532E+02  +1.546E+04
  +1.24E+05  +3.08E+05  +1.57E+05  +2.234E+03  +1.553E+04  -6.486E+02  -1.547E+03  -1.667E+03  +1.532E+02  +1.546E+04

element # = 185     type =4-n tetrahedron
 XX         YY         ZZ         SIGXX       SIGYY       SIGZZ       TAUXY       TAUYZ       TAUZX       SIGV
  +3.54E+04  +2.07E+05  +1.17E+04  +1.313E+01  -1.511E+04  +4.059E+02  -1.353E+02  -1.789E+03  +4.492E+02  +1.565E+04
  +1.30E+04  +2.07E+05  +2.86E+04  +1.313E+01  -1.511E+04  +4.059E+02  -1.353E+02  -1.789E+03  +4.492E+02  +1.565E+04
  +3.28E+04  +1.96E+05  +3.25E+04  +1.313E+01  -1.511E+04  +4.059E+02  -1.353E+02  -1.789E+03  +4.492E+02  +1.565E+04
  +1.30E+04  +1.97E+05  +1.17E+04  +1.313E+01  -1.511E+04  +4.059E+02  -1.353E+02  -1.789E+03  +4.492E+02  +1.565E+04

element # = 186     type =4-n tetrahedron
 XX         YY         ZZ         SIGXX       SIGYY       SIGZZ       TAUXY       TAUYZ       TAUZX       SIGV
  +1.85E+05  +5.30E+05  +4.50E+04  +3.225E+02  -3.371E+03  +1.108E+03  -3.404E+01  -1.792E+03  +7.754E+01  +5.178E+03
  +1.62E+05  +5.08E+05  +2.26E+04  +3.225E+02  -3.371E+03  +1.108E+03  -3.404E+01  -1.792E+03  +7.754E+01  +5.178E+03
  +1.57E+05  +5.14E+05  +5.10E+04  +3.225E+02  -3.371E+03  +1.108E+03  -3.404E+01  -1.792E+03  +7.754E+01  +5.178E+03
  +1.85E+05  +5.08E+05  +4.50E+04  +3.225E+02  -3.371E+03  +1.108E+03  -3.404E+01  -1.792E+03  +7.754E+01  +5.178E+03

element # = 187     type =4-n tetrahedron
 XX         YY         ZZ         SIGXX       SIGYY       SIGZZ       TAUXY       TAUYZ       TAUZX       SIGV
  +3.31E+04  +8.82E+05  +1.24E+05  -1.116E+02  -1.201E+02  -4.601E+02  +9.263E+00  -3.973E+02  +2.414E+01  +7.708E+02
  +7.81E+03  +8.86E+05  +1.33E+05  -1.116E+02  -1.201E+02  -4.601E+02  +9.263E+00  -3.973E+02  +2.414E+01  +7.708E+02
  +7.81E+03  +8.74E+05  +1.11E+05  -1.116E+02  -1.201E+02  -4.601E+02  +9.263E+00  -3.973E+02  +2.414E+01  +7.708E+02
  +7.81E+03  +8.97E+05  +1.11E+05  -1.116E+02  -1.201E+02  -4.601E+02  +9.263E+00  -3.973E+02  +2.414E+01  +7.708E+02

element # = 188     type =4-n tetrahedron
 XX         YY         ZZ         SIGXX       SIGYY       SIGZZ       TAUXY       TAUYZ       TAUZX       SIGV
  +1.92E+05  +3.83E+05  +1.20E+05  +8.415E+02  +7.122E+03  +1.785E+02  +2.274E+02  -2.043E+03  -6.803E+02  +7.623E+03
  +1.92E+05  +3.93E+05  +1.43E+05  +8.415E+02  +7.122E+03  +1.785E+02  +2.274E+02  -2.043E+03  -6.803E+02  +7.623E+03
  +1.92E+05  +3.72E+05  +1.43E+05  +8.415E+02  +7.122E+03  +1.785E+02  +2.274E+02  -2.043E+03  -6.803E+02  +7.623E+03
  +1.65E+05  +3.89E+05  +1.42E+05  +8.415E+02  +7.122E+03  +1.785E+02  +2.274E+02  -2.043E+03  -6.803E+02  +7.623E+03

element # = 189     type =4-n tetrahedron
 XX         YY         ZZ         SIGXX       SIGYY       SIGZZ       TAUXY       TAUYZ       TAUZX       SIGV
  +4.24E+04  +1.78E+05  +6.44E+03  -1.591E+03  -2.277E+04  -1.124E+03  +3.308E+01  -1.874E+03  -4.745E+02  +2.167E+04
  +4.24E+04  +2.00E+05  +6.44E+03  -1.591E+03  -2.277E+04  -1.124E+03  +3.308E+01  -1.874E+03  -4.745E+02  +2.167E+04
  +3.97E+04  +1.89E+05  +2.73E+04  -1.591E+03  -2.277E+04  -1.124E+03  +3.308E+01  -1.874E+03  -4.745E+02  +2.167E+04
  +2.00E+04  +1.90E+05  +6.44E+03  -1.591E+03  -2.277E+04  -1.124E+03  +3.308E+01  -1.874E+03  -4.745E+02  +2.167E+04

element # = 190     type =4-n tetrahedron
 XX         YY         ZZ         SIGXX       SIGYY       SIGZZ       TAUXY       TAUYZ       TAUZX       SIGV
  +1.11E+05  +8.24E+05  +1.90E+05  +3.979E+01  +9.017E+02  -3.672E+02  +1.343E+01  -3.353E+02  +7.951E+00  +1.264E+03
  +1.11E+05  +8.47E+05  +1.90E+05  +3.979E+01  +9.017E+02  -3.672E+02  +1.343E+01  -3.353E+02  +7.951E+00  +1.264E+03
  +1.23E+05  +8.31E+05  +1.59E+05  +3.979E+01  +9.017E+02  -3.672E+02  +1.343E+01  -3.353E+02  +7.951E+00  +1.264E+03
  +1.33E+05  +8.35E+05  +1.90E+05  +3.979E+01  +9.017E+02  -3.672E+02  +1.343E+01  -3.353E+02  +7.951E+00  +1.264E+03

element # = 191     type =4-n tetrahedron
 XX         YY         ZZ         SIGXX       SIGYY       SIGZZ       TAUXY       TAUYZ       TAUZX       SIGV
  +1.62E+05  +4.31E+05  +1.44E+05  +7.900E+02  +6.051E+03  +8.631E+02  +2.224E+01  -1.500E+03  -2.737E+02  +5.854E+03
  +1.85E+05  +4.12E+05  +1.43E+05  +7.900E+02  +6.051E+03  +8.631E+02  +2.224E+01  -1.500E+03  -2.737E+02  +5.854E+03
  +1.85E+05  +4.23E+05  +1.21E+05  +7.900E+02  +6.051E+03  +8.631E+02  +2.224E+01  -1.500E+03  -2.737E+02  +5.854E+03
  +1.58E+05  +4.08E+05  +1.42E+05  +7.900E+02  +6.051E+03  +8.631E+02  +2.224E+01  -1.500E+03  -2.737E+02  +5.854E+03

element # = 192     type =4-n tetrahedron
 XX         YY         ZZ         SIGXX       SIGYY       SIGZZ       TAUXY       TAUYZ       TAUZX       SIGV
  +6.26E+03  +4.05E+05  +1.02E+05  +1.117E+02  -4.595E+02  -1.398E+02  +7.191E+00  -3.179E+03  +8.625E+02  +5.726E+03
  +2.65E+04  +3.99E+05  +1.02E+05  +1.117E+02  -4.595E+02  -1.398E+02  +7.191E+00  -3.179E+03  +8.625E+02  +5.726E+03
  +6.26E+03  +3.83E+05  +9.47E+04  +1.117E+02  -4.595E+02  -1.398E+02  +7.191E+00  -3.179E+03  +8.625E+02  +5.726E+03
  +6.26E+03  +3.87E+05  +1.13E+05  +1.117E+02  -4.595E+02  -1.398E+02  +7.191E+00  -3.179E+03  +8.625E+02  +5.726E+03

element # = 193     type =4-n tetrahedron
 XX         YY         ZZ         SIGXX       SIGYY       SIGZZ       TAUXY       TAUYZ       TAUZX       SIGV
  +7.15E+04  +2.55E+05  +1.11E+05  +3.902E+02  +2.929E+03  +4.750E+02  -4.858E+02  -1.156E+03  -2.322E+02  +3.335E+03
  +1.14E+05  +2.49E+05  +1.22E+05  +3.902E+02  +2.929E+03  +4.750E+02  -4.858E+02  -1.156E+03  -2.322E+02  +3.335E+03
  +9.06E+04  +2.72E+05  +1.31E+05  +3.902E+02  +2.929E+03  +4.750E+02  -4.858E+02  -1.156E+03  -2.322E+02  +3.335E+03
  +9.21E+04  +2.77E+05  +1.04E+05  +3.902E+02  +2.929E+03  +4.750E+02  -4.858E+02  -1.156E+03  -2.322E+02  +3.335E+03

element # = 194     type =4-n tetrahedron
 XX         YY         ZZ         SIGXX       SIGYY       SIGZZ       TAUXY       TAUYZ       TAUZX       SIGV
  +1.78E+05  +2.22E+05  +1.61E+05  +3.047E+03  +2.018E+04  +2.089E+03  +6.733E+02  -1.839E+03  +3.766E+02  +1.797E+04
  +1.56E+05  +2.44E+05  +1.83E+05  +3.047E+03  +2.018E+04  +2.089E+03  +6.733E+02  -1.839E+03  +3.766E+02  +1.797E+04
  +1.56E+05  +2.22E+05  +1.83E+05  +3.047E+03  +2.018E+04  +2.089E+03  +6.733E+02  -1.839E+03  +3.766E+02  +1.797E+04
  +1.52E+05  +2.31E+05  +1.51E+05  +3.047E+03  +2.018E+04  +2.089E+03  +6.733E+02  -1.839E+03  +3.766E+02  +1.797E+04

element # = 195     type =4-n tetrahedron
 XX         YY         ZZ         SIGXX       SIGYY       SIGZZ       TAUXY       TAUYZ       TAUZX       SIGV
  +1.93E+05  +9.92E+05  +1.33E+05  +6.017E+00  +5.969E+01  -3.742E+02  +1.111E+01  -9.925E+01  +2.862E+01  +4.475E+02
  +1.70E+05  +9.92E+05  +1.46E+05  +6.017E+00  +5.969E+01  -3.742E+02  +1.111E+01  -9.925E+01  +2.862E+01  +4.475E+02
  +1.93E+05  +9.92E+05  +1.51E+05  +6.017E+00  +5.969E+01  -3.742E+02  +1.111E+01  -9.925E+01  +2.862E+01  +4.475E+02
  +1.93E+05  +9.67E+05  +1.46E+05  +6.017E+00  +5.969E+01  -3.742E+02  +1.111E+01  -9.925E+01  +2.862E+01  +4.475E+02

element # = 196     type =4-n tetrahedron
 XX         YY         ZZ         SIGXX       SIGYY       SIGZZ       TAUXY       TAUYZ       TAUZX       SIGV
  +1.03E+05  +9.83E+05  +5.25E+04  +1.758E+01  -6.781E+01  -1.201E+02  +9.818E+00  -9.693E+01  -1.306E+01  +2.085E+02
  +1.03E+05  +9.83E+05  +7.81E+04  +1.758E+01  -6.781E+01  -1.201E+02  +9.818E+00  -9.693E+01  -1.306E+01  +2.085E+02
  +1.20E+05  +9.59E+05  +5.63E+04  +1.758E+01  -6.781E+01  -1.201E+02  +9.818E+00  -9.693E+01  -1.306E+01  +2.085E+02
  +9.51E+04  +9.50E+05  +5.45E+04  +1.758E+01  -6.781E+01  -1.201E+02  +9.818E+00  -9.693E+01  -1.306E+01  +2.085E+02

element # = 197     type =4-n tetrahedron
 XX         YY         ZZ         SIGXX       SIGYY       SIGZZ       TAUXY       TAUYZ       TAUZX       SIGV
  +2.64E+04  +6.56E+04  +1.68E+05  -2.293E+02  +1.830E+04  -1.804E+03  +6.872E+01  -2.263E+03  +1.743E+02  +1.976E+04
  +1.03E+04  +5.14E+04  +1.84E+05  -2.293E+02  +1.830E+04  -1.804E+03  +6.872E+01  -2.263E+03  +1.743E+02  +1.976E+04
  +2.74E+04  +4.53E+04  +1.70E+05  -2.293E+02  +1.830E+04  -1.804E+03  +6.872E+01  -2.263E+03  +1.743E+02  +1.976E+04
  +1.03E+04  +5.56E+04  +1.60E+05  -2.293E+02  +1.830E+04  -1.804E+03  +6.872E+01  -2.263E+03  +1.743E+02  +1.976E+04

element # = 198     type =4-n tetrahedron
 XX         YY         ZZ         SIGXX       SIGYY       SIGZZ       TAUXY       TAUYZ       TAUZX       SIGV
  +1.13E+04  +3.74E+05  +9.79E+04  -1.395E+02  +9.206E+02  -2.738E+02  -6.958E+01  -2.521E+03  +2.190E+02  +4.528E+03
  +1.13E+04  +3.79E+05  +1.16E+05  -1.395E+02  +9.206E+02  -2.738E+02  -6.958E+01  -2.521E+03  +2.190E+02  +4.528E+03
  +3.16E+04  +3.91E+05  +1.05E+05  -1.395E+02  +9.206E+02  -2.738E+02  -6.958E+01  -2.521E+03  +2.190E+02  +4.528E+03
  +2.76E+04  +3.70E+05  +1.16E+05  -1.395E+02  +9.206E+02  -2.738E+02  -6.958E+01  -2.521E+03  +2.190E+02  +4.528E+03

element # = 199     type =4-n tetrahedron
 XX         YY         ZZ         SIGXX       SIGYY       SIGZZ       TAUXY       TAUYZ       TAUZX       SIGV
  +1.75E+05  +9.68E+05  +1.09E+05  -2.343E+01  -1.852E+01  -3.210E+02  +1.919E+01  -8.196E+01  +1.649E+01  +3.348E+02
  +1.52E+05  +9.86E+05  +1.30E+05  -2.343E+01  -1.852E+01  -3.210E+02  +1.919E+01  -8.196E+01  +1.649E+01  +3.348E+02
  +1.37E+05  +9.61E+05  +1.16E+05  -2.343E+01  -1.852E+01  -3.210E+02  +1.919E+01  -8.196E+01  +1.649E+01  +3.348E+02
  +1.56E+05  +9.86E+05  +1.09E+05  -2.343E+01  -1.852E+01  -3.210E+02  +1.919E+01  -8.196E+01  +1.649E+01  +3.348E+02

element # = 200     type =4-n tetrahedron
 XX         YY         ZZ         SIGXX       SIGYY       SIGZZ       TAUXY       TAUYZ       TAUZX       SIGV
  +1.12E+05  +8.27E+05  +8.58E+03  +3.166E+01  -8.846E+02  -1.599E+02  -6.404E+01  -2.803E+02  -6.339E+01  +9.802E+02
  +1.34E+05  +8.38E+05  +8.58E+03  +3.166E+01  -8.846E+02  -1.599E+02  -6.404E+01  -2.803E+02  -6.339E+01  +9.802E+02
  +1.29E+05  +8.44E+05  +3.63E+04  +3.166E+01  -8.846E+02  -1.599E+02  -6.404E+01  -2.803E+02  -6.339E+01  +9.802E+02
  +1.12E+05  +8.50E+05  +8.58E+03  +3.166E+01  -8.846E+02  -1.599E+02  -6.404E+01  -2.803E+02  -6.339E+01  +9.802E+02

element # = 201     type =4-n tetrahedron
 XX         YY         ZZ         SIGXX       SIGYY       SIGZZ       TAUXY       TAUYZ       TAUZX       SIGV
  +4.35E+04  +6.29E+05  +1.95E+05  +1.012E+02  +4.643E+03  -5.501E+02  -9.109E+01  -6.303E+02  -2.959E+02  +5.049E+03
  +2.12E+04  +6.18E+05  +1.95E+05  +1.012E+02  +4.643E+03  -5.501E+02  -9.109E+01  -6.303E+02  -2.959E+02  +5.049E+03
  +4.35E+04  +6.08E+05  +1.95E+05  +1.012E+02  +4.643E+03  -5.501E+02  -9.109E+01  -6.303E+02  -2.959E+02  +5.049E+03
  +4.49E+04  +6.17E+05  +1.79E+05  +1.012E+02  +4.643E+03  -5.501E+02  -9.109E+01  -6.303E+02  -2.959E+02  +5.049E+03

element # = 202     type =4-n tetrahedron
 XX         YY         ZZ         SIGXX       SIGYY       SIGZZ       TAUXY       TAUYZ       TAUZX       SIGV
  +1.86E+05  +9.57E+05  +1.86E+05  -4.468E+01  +2.758E+01  -4.770E+02  +1.427E+01  -6.411E+01  -1.351E+00  +4.861E+02
  +1.63E+05  +9.78E+05  +1.63E+05  -4.468E+01  +2.758E+01  -4.770E+02  +1.427E+01  -6.411E+01  -1.351E+00  +4.861E+02
  +1.62E+05  +9.53E+05  +1.86E+05  -4.468E+01  +2.758E+01  -4.770E+02  +1.427E+01  -6.411E+01  -1.351E+00  +4.861E+02
  +1.86E+05  +9.53E+05  +1.62E+05  -4.468E+01  +2.758E+01  -4.770E+02  +1.427E+01  -6.411E+01  -1.351E+00  +4.861E+02

element # = 203     type =4-n tetrahedron
 XX         YY         ZZ         SIGXX       SIGYY       SIGZZ       TAUXY       TAUYZ       TAUZX       SIGV
  +2.69E+04  +2.30E+05  +1.04E+05  +7.999E+02  +3.591E+03  +5.883E+02  -9.817E+02  -4.183E+03  +5.356E+02  +8.042E+03
  +6.36E+03  +2.07E+05  +1.13E+05  +7.999E+02  +3.591E+03  +5.883E+02  -9.817E+02  -4.183E+03  +5.356E+02  +8.042E+03
  +6.36E+03  +2.09E+05  +9.44E+04  +7.999E+02  +3.591E+03  +5.883E+02  -9.817E+02  -4.183E+03  +5.356E+02  +8.042E+03
  +6.36E+03  +2.28E+05  +1.09E+05  +7.999E+02  +3.591E+03  +5.883E+02  -9.817E+02  -4.183E+03  +5.356E+02  +8.042E+03

element # = 204     type =4-n tetrahedron
 XX         YY         ZZ         SIGXX       SIGYY       SIGZZ       TAUXY       TAUYZ       TAUZX       SIGV
  +1.05E+05  +6.13E+04  +1.21E+05  -4.364E+02  +8.605E+03  +3.812E+02  +4.603E+02  -7.103E+03  +2.361E+02  +1.507E+04
  +1.24E+05  +6.61E+04  +1.48E+05  -4.364E+02  +8.605E+03  +3.812E+02  +4.603E+02  -7.103E+03  +2.361E+02  +1.507E+04
  +9.72E+04  +6.39E+04  +1.47E+05  -4.364E+02  +8.605E+03  +3.812E+02  +4.603E+02  -7.103E+03  +2.361E+02  +1.507E+04
  +1.18E+05  +1.01E+05  +1.38E+05  -4.364E+02  +8.605E+03  +3.812E+02  +4.603E+02  -7.103E+03  +2.361E+02  +1.507E+04

element # = 205     type =4-n tetrahedron
 XX         YY         ZZ         SIGXX       SIGYY       SIGZZ       TAUXY       TAUYZ       TAUZX       SIGV
  +4.22E+04  +3.36E+05  +8.25E+04  +7.312E+02  -6.969E+02  +4.597E+02  -4.350E+02  -3.068E+03  -3.869E+02  +5.566E+03
  +3.84E+04  +3.17E+05  +9.44E+04  +7.312E+02  -6.969E+02  +4.597E+02  -4.350E+02  -3.068E+03  -3.869E+02  +5.566E+03
  +4.17E+04  +3.23E+05  +6.59E+04  +7.312E+02  -6.969E+02  +4.597E+02  -4.350E+02  -3.068E+03  -3.869E+02  +5.566E+03
  +1.96E+04  +3.24E+05  +8.07E+04  +7.312E+02  -6.969E+02  +4.597E+02  -4.350E+02  -3.068E+03  -3.869E+02  +5.566E+03

element # = 206     type =4-n tetrahedron
 XX         YY         ZZ         SIGXX       SIGYY       SIGZZ       TAUXY       TAUYZ       TAUZX       SIGV
  +6.00E+04  +3.38E+05  +4.14E+04  -4.137E+02  -8.041E+03  -6.789E+02  -9.712E+01  -1.186E+03  +7.786E+02  +7.893E+03
  +6.07E+04  +3.72E+05  +3.86E+04  -4.137E+02  -8.041E+03  -6.789E+02  -9.712E+01  -1.186E+03  +7.786E+02  +7.893E+03
  +6.03E+04  +3.55E+05  +2.03E+04  -4.137E+02  -8.041E+03  -6.789E+02  -9.712E+01  -1.186E+03  +7.786E+02  +7.893E+03
  +9.33E+04  +3.46E+05  +4.63E+04  -4.137E+02  -8.041E+03  -6.789E+02  -9.712E+01  -1.186E+03  +7.786E+02  +7.893E+03

element # = 207     type =4-n tetrahedron
 XX         YY         ZZ         SIGXX       SIGYY       SIGZZ       TAUXY       TAUYZ       TAUZX       SIGV
  +4.05E+04  +6.93E+05  +1.72E+05  -2.280E+02  +2.102E+03  -5.237E+02  +1.302E+02  -4.475E+02  -5.643E+01  +2.620E+03
  +4.34E+04  +6.85E+05  +1.89E+05  -2.280E+02  +2.102E+03  -5.237E+02  +1.302E+02  -4.475E+02  -5.643E+01  +2.620E+03
  +4.74E+04  +6.72E+05  +1.70E+05  -2.280E+02  +2.102E+03  -5.237E+02  +1.302E+02  -4.475E+02  -5.643E+01  +2.620E+03
  +2.11E+04  +6.75E+05  +1.89E+05  -2.280E+02  +2.102E+03  -5.237E+02  +1.302E+02  -4.475E+02  -5.643E+01  +2.620E+03

element # = 208     type =4-n tetrahedron
 XX         YY         ZZ         SIGXX       SIGYY       SIGZZ       TAUXY       TAUYZ       TAUZX       SIGV
  +4.43E+04  +6.77E+05  +1.94E+05  +1.445E+02  +3.350E+03  -6.518E+02  -1.171E+02  -5.492E+02  -1.671E+02  +3.807E+03
  +4.43E+04  +6.55E+05  +1.94E+05  +1.445E+02  +3.350E+03  -6.518E+02  -1.171E+02  -5.492E+02  -1.671E+02  +3.807E+03
  +4.83E+04  +6.63E+05  +1.75E+05  +1.445E+02  +3.350E+03  -6.518E+02  -1.171E+02  -5.492E+02  -1.671E+02  +3.807E+03
  +2.20E+04  +6.66E+05  +1.94E+05  +1.445E+02  +3.350E+03  -6.518E+02  -1.171E+02  -5.492E+02  -1.671E+02  +3.807E+03

element # = 209     type =4-n tetrahedron
 XX         YY         ZZ         SIGXX       SIGYY       SIGZZ       TAUXY       TAUYZ       TAUZX       SIGV
  +4.19E+04  +1.77E+05  +1.95E+05  +8.201E+02  +2.097E+04  +5.166E+02  -2.212E+02  -1.421E+03  -8.772E+02  +2.051E+04
  +3.76E+04  +1.88E+05  +1.79E+05  +8.201E+02  +2.097E+04  +5.166E+02  -2.212E+02  -1.421E+03  -8.772E+02  +2.051E+04
  +4.19E+04  +1.99E+05  +1.95E+05  +8.201E+02  +2.097E+04  +5.166E+02  -2.212E+02  -1.421E+03  -8.772E+02  +2.051E+04
  +1.95E+04  +1.89E+05  +1.95E+05  +8.201E+02  +2.097E+04  +5.166E+02  -2.212E+02  -1.421E+03  -8.772E+02  +2.051E+04

element # = 210     type =4-n tetrahedron
 XX         YY         ZZ         SIGXX       SIGYY       SIGZZ       TAUXY       TAUYZ       TAUZX       SIGV
  +1.70E+05  +4.74E+05  +9.11E+04  -1.018E+03  -3.304E+03  -3.568E+01  +3.083E+02  -2.470E+03  +1.698E+02  +5.206E+03
  +1.27E+05  +4.62E+05  +9.90E+04  -1.018E+03  -3.304E+03  -3.568E+01  +3.083E+02  -2.470E+03  +1.698E+02  +5.206E+03
  +1.44E+05  +4.64E+05  +7.06E+04  -1.018E+03  -3.304E+03  -3.568E+01  +3.083E+02  -2.470E+03  +1.698E+02  +5.206E+03
  +1.42E+05  +4.91E+05  +7.47E+04  -1.018E+03  -3.304E+03  -3.568E+01  +3.083E+02  -2.470E+03  +1.698E+02  +5.206E+03

element # = 211     type =4-n tetrahedron
 XX         YY         ZZ         SIGXX       SIGYY       SIGZZ       TAUXY       TAUYZ       TAUZX       SIGV
  +1.12E+05  +2.16E+05  +5.21E+04  -9.243E+02  -7.997E+03  -2.018E+03  -4.278E+02  -2.238E+03  -2.161E+03  +8.547E+03
  +1.39E+05  +2.14E+05  +2.53E+04  -9.243E+02  -7.997E+03  -2.018E+03  -4.278E+02  -2.238E+03  -2.161E+03  +8.547E+03
  +1.34E+05  +1.96E+05  +5.47E+04  -9.243E+02  -7.997E+03  -2.018E+03  -4.278E+02  -2.238E+03  -2.161E+03  +8.547E+03
  +1.34E+05  +2.35E+05  +5.09E+04  -9.243E+02  -7.997E+03  -2.018E+03  -4.278E+02  -2.238E+03  -2.161E+03  +8.547E+03

element # = 212     type =4-n tetrahedron
 XX         YY         ZZ         SIGXX       SIGYY       SIGZZ       TAUXY       TAUYZ       TAUZX       SIGV
  +1.34E+05  +3.65E+05  +1.83E+05  -3.704E+02  +7.530E+03  -9.507E+02  -6.112E+02  -1.453E+03  -1.058E+01  +8.649E+03
  +1.11E+05  +3.76E+05  +1.83E+05  -3.704E+02  +7.530E+03  -9.507E+02  -6.112E+02  -1.453E+03  -1.058E+01  +8.649E+03
  +1.09E+05  +3.64E+05  +1.51E+05  -3.704E+02  +7.530E+03  -9.507E+02  -6.112E+02  -1.453E+03  -1.058E+01  +8.649E+03
  +1.29E+05  +3.82E+05  +1.59E+05  -3.704E+02  +7.530E+03  -9.507E+02  -6.112E+02  -1.453E+03  -1.058E+01  +8.649E+03

element # = 213     type =4-n tetrahedron
 XX         YY         ZZ         SIGXX       SIGYY       SIGZZ       TAUXY       TAUYZ       TAUZX       SIGV
  +9.97E+04  +3.30E+05  +1.28E+05  -8.132E+02  +4.106E+03  -9.805E+02  +2.347E+02  -4.187E+03  +1.257E+03  +9.085E+03
  +9.75E+04  +2.98E+05  +1.36E+05  -8.132E+02  +4.106E+03  -9.805E+02  +2.347E+02  -4.187E+03  +1.257E+03  +9.085E+03
  +1.23E+05  +3.12E+05  +1.32E+05  -8.132E+02  +4.106E+03  -9.805E+02  +2.347E+02  -4.187E+03  +1.257E+03  +9.085E+03
  +9.91E+04  +3.03E+05  +1.10E+05  -8.132E+02  +4.106E+03  -9.805E+02  +2.347E+02  -4.187E+03  +1.257E+03  +9.085E+03

element # = 214     type =4-n tetrahedron
 XX         YY         ZZ         SIGXX       SIGYY       SIGZZ       TAUXY       TAUYZ       TAUZX       SIGV
  +5.91E+03  +9.56E+05  +1.59E+05  -5.007E+01  -4.819E+00  -5.124E+02  -1.079E+01  -4.450E+01  -1.796E+01  +4.940E+02
  +2.50E+04  +9.64E+05  +1.69E+05  -5.007E+01  -4.819E+00  -5.124E+02  -1.079E+01  -4.450E+01  -1.796E+01  +4.940E+02
  +5.91E+03  +9.59E+05  +1.83E+05  -5.007E+01  -4.819E+00  -5.124E+02  -1.079E+01  -4.450E+01  -1.796E+01  +4.940E+02
  +5.91E+03  +9.81E+05  +1.65E+05  -5.007E+01  -4.819E+00  -5.124E+02  -1.079E+01  -4.450E+01  -1.796E+01  +4.940E+02

element # = 215     type =4-n tetrahedron
 XX         YY         ZZ         SIGXX       SIGYY       SIGZZ       TAUXY       TAUYZ       TAUZX       SIGV
  +8.69E+04  +2.07E+05  +1.69E+05  +1.900E+03  +2.168E+04  +1.083E+03  -3.200E+02  -2.151E+03  -4.175E+02  +2.056E+04
  +9.16E+04  +2.22E+05  +1.93E+05  +1.900E+03  +2.168E+04  +1.083E+03  -3.200E+02  -2.151E+03  -4.175E+02  +2.056E+04
  +9.16E+04  +2.00E+05  +1.93E+05  +1.900E+03  +2.168E+04  +1.083E+03  -3.200E+02  -2.151E+03  -4.175E+02  +2.056E+04
  +6.93E+04  +2.11E+05  +1.93E+05  +1.900E+03  +2.168E+04  +1.083E+03  -3.200E+02  -2.151E+03  -4.175E+02  +2.056E+04

element # = 216     type =4-n tetrahedron
 XX         YY         ZZ         SIGXX       SIGYY       SIGZZ       TAUXY       TAUYZ       TAUZX       SIGV
  +1.27E+04  +6.07E+05  +1.48E+05  +4.043E+01  +2.349E+03  -5.311E+02  -3.223E+01  -1.169E+03  +1.106E+00  +3.329E+03
  +3.64E+04  +6.16E+05  +1.54E+05  +4.043E+01  +2.349E+03  -5.311E+02  -3.223E+01  -1.169E+03  +1.106E+00  +3.329E+03
  +1.27E+04  +6.29E+05  +1.48E+05  +4.043E+01  +2.349E+03  -5.311E+02  -3.223E+01  -1.169E+03  +1.106E+00  +3.329E+03
  +3.00E+04  +6.18E+05  +1.36E+05  +4.043E+01  +2.349E+03  -5.311E+02  -3.223E+01  -1.169E+03  +1.106E+00  +3.329E+03

element # = 217     type =4-n tetrahedron
 XX         YY         ZZ         SIGXX       SIGYY       SIGZZ       TAUXY       TAUYZ       TAUZX       SIGV
  +5.23E+04  +2.32E+05  +1.73E+05  +5.044E+02  +1.834E+04  -8.338E+02  -3.510E+01  -1.428E+03  +1.219E+03  +1.882E+04
  +7.82E+04  +2.36E+05  +1.94E+05  +5.044E+02  +1.834E+04  -8.338E+02  -3.510E+01  -1.428E+03  +1.219E+03  +1.882E+04
  +5.59E+04  +2.25E+05  +1.94E+05  +5.044E+02  +1.834E+04  -8.338E+02  -3.510E+01  -1.428E+03  +1.219E+03  +1.882E+04
  +5.59E+04  +2.47E+05  +1.94E+05  +5.044E+02  +1.834E+04  -8.338E+02  -3.510E+01  -1.428E+03  +1.219E+03  +1.882E+04

element # = 218     type =4-n tetrahedron
 XX         YY         ZZ         SIGXX       SIGYY       SIGZZ       TAUXY       TAUYZ       TAUZX       SIGV
  +1.21E+05  +7.74E+05  +9.86E+04  +5.560E+00  +5.331E+02  -3.583E+02  -9.236E+01  -8.830E+02  -8.566E+01  +1.729E+03
  +9.06E+04  +7.97E+05  +1.34E+05  +5.560E+00  +5.331E+02  -3.583E+02  -9.236E+01  -8.830E+02  -8.566E+01  +1.729E+03
  +1.19E+05  +8.05E+05  +1.26E+05  +5.560E+00  +5.331E+02  -3.583E+02  -9.236E+01  -8.830E+02  -8.566E+01  +1.729E+03
  +1.19E+05  +7.72E+05  +1.31E+05  +5.560E+00  +5.331E+02  -3.583E+02  -9.236E+01  -8.830E+02  -8.566E+01  +1.729E+03

element # = 219     type =4-n tetrahedron
 XX         YY         ZZ         SIGXX       SIGYY       SIGZZ       TAUXY       TAUYZ       TAUZX       SIGV
  +1.27E+05  +9.30E+05  +6.10E+04  -4.503E+01  -1.981E+02  -2.305E+02  +1.417E+01  -2.413E+02  +2.031E+01  +4.539E+02
  +1.27E+05  +8.87E+05  +6.59E+04  -4.503E+01  -1.981E+02  -2.305E+02  +1.417E+01  -2.413E+02  +2.031E+01  +4.539E+02
  +1.02E+05  +9.22E+05  +5.92E+04  -4.503E+01  -1.981E+02  -2.305E+02  +1.417E+01  -2.413E+02  +2.031E+01  +4.539E+02
  +1.17E+05  +9.28E+05  +8.96E+04  -4.503E+01  -1.981E+02  -2.305E+02  +1.417E+01  -2.413E+02  +2.031E+01  +4.539E+02

element # = 220     type =4-n tetrahedron
 XX         YY         ZZ         SIGXX       SIGYY       SIGZZ       TAUXY       TAUYZ       TAUZX       SIGV
  +6.16E+04  +7.45E+04  +1.96E+05  +2.366E+03  +2.756E+04  +1.802E+03  +6.374E+02  +6.634E+02  +1.266E+03  +2.562E+04
  +7.08E+04  +9.51E+04  +1.82E+05  +2.366E+03  +2.756E+04  +1.802E+03  +6.374E+02  +6.634E+02  +1.266E+03  +2.562E+04
  +8.29E+04  +8.87E+04  +1.96E+05  +2.366E+03  +2.756E+04  +1.802E+03  +6.374E+02  +6.634E+02  +1.266E+03  +2.562E+04
  +6.07E+04  +1.00E+05  +1.96E+05  +2.366E+03  +2.756E+04  +1.802E+03  +6.374E+02  +6.634E+02  +1.266E+03  +2.562E+04

element # = 221     type =4-n tetrahedron
 XX         YY         ZZ         SIGXX       SIGYY       SIGZZ       TAUXY       TAUYZ       TAUZX       SIGV
  +5.38E+04  +3.60E+05  +9.85E+04  -8.923E+02  -3.583E+02  +3.207E+02  -2.342E+01  -3.226E+03  +4.515E+02  +5.740E+03
  +4.75E+04  +3.64E+05  +1.16E+05  -8.923E+02  -3.583E+02  +3.207E+02  -2.342E+01  -3.226E+03  +4.515E+02  +5.740E+03
  +5.15E+04  +3.84E+05  +1.05E+05  -8.923E+02  -3.583E+02  +3.207E+02  -2.342E+01  -3.226E+03  +4.515E+02  +5.740E+03
  +7.30E+04  +3.61E+05  +1.19E+05  -8.923E+02  -3.583E+02  +3.207E+02  -2.342E+01  -3.226E+03  +4.515E+02  +5.740E+03

element # = 222     type =4-n tetrahedron
 XX         YY         ZZ         SIGXX       SIGYY       SIGZZ       TAUXY       TAUYZ       TAUZX       SIGV
  +2.93E+04  +7.87E+05  +1.93E+05  +1.085E+02  +1.491E+03  -3.542E+02  -1.011E+02  -3.818E+02  +4.513E+01  +1.800E+03
  +6.93E+03  +7.87E+05  +1.71E+05  +1.085E+02  +1.491E+03  -3.542E+02  -1.011E+02  -3.818E+02  +4.513E+01  +1.800E+03
  +6.93E+03  +7.97E+05  +1.93E+05  +1.085E+02  +1.491E+03  -3.542E+02  -1.011E+02  -3.818E+02  +4.513E+01  +1.800E+03
  +6.93E+03  +7.75E+05  +1.93E+05  +1.085E+02  +1.491E+03  -3.542E+02  -1.011E+02  -3.818E+02  +4.513E+01  +1.800E+03

element # = 223     type =4-n tetrahedron
 XX         YY         ZZ         SIGXX       SIGYY       SIGZZ       TAUXY       TAUYZ       TAUZX       SIGV
  +6.18E+04  +7.42E+05  +1.88E+05  -4.528E+01  +1.125E+03  -5.282E+02  +1.662E+01  -4.440E+02  +8.001E+01  +1.667E+03
  +7.70E+04  +7.33E+05  +1.64E+05  -4.528E+01  +1.125E+03  -5.282E+02  +1.662E+01  -4.440E+02  +8.001E+01  +1.667E+03
  +8.42E+04  +7.53E+05  +1.88E+05  -4.528E+01  +1.125E+03  -5.282E+02  +1.662E+01  -4.440E+02  +8.001E+01  +1.667E+03
  +6.24E+04  +7.52E+05  +1.72E+05  -4.528E+01  +1.125E+03  -5.282E+02  +1.662E+01  -4.440E+02  +8.001E+01  +1.667E+03

element # = 224     type =4-n tetrahedron
 XX         YY         ZZ         SIGXX       SIGYY       SIGZZ       TAUXY       TAUYZ       TAUZX       SIGV
  +1.56E+05  +1.99E+05  +6.71E+04  -1.485E+02  -7.317E+03  -1.170E+03  +7.580E+02  -1.506E+03  +3.563E+02  +7.349E+03
  +1.83E+05  +2.28E+05  +8.25E+04  -1.485E+02  -7.317E+03  -1.170E+03  +7.580E+02  -1.506E+03  +3.563E+02  +7.349E+03
  +1.56E+05  +2.38E+05  +6.34E+04  -1.485E+02  -7.317E+03  -1.170E+03  +7.580E+02  -1.506E+03  +3.563E+02  +7.349E+03
  +1.83E+05  +2.17E+05  +6.02E+04  -1.485E+02  -7.317E+03  -1.170E+03  +7.580E+02  -1.506E+03  +3.563E+02  +7.349E+03

element # = 225     type =4-n tetrahedron
 XX         YY         ZZ         SIGXX       SIGYY       SIGZZ       TAUXY       TAUYZ       TAUZX       SIGV
  +1.93E+05  +7.72E+03  +1.33E+05  +7.797E+03  +1.819E+04  +7.797E+03  -1.730E+03  -4.545E+03  +0.000E+00  +1.338E+04
  +1.93E+05  +3.27E+04  +1.46E+05  +7.797E+03  +1.819E+04  +7.797E+03  -1.730E+03  -4.545E+03  +0.000E+00  +1.338E+04
  +1.93E+05  +7.72E+03  +1.51E+05  +7.797E+03  +1.819E+04  +7.797E+03  -1.730E+03  -4.545E+03  +0.000E+00  +1.338E+04
  +1.70E+05  +7.72E+03  +1.46E+05  +7.797E+03  +1.819E+04  +7.797E+03  -1.730E+03  -4.545E+03  +0.000E+00  +1.338E+04

element # = 226     type =4-n tetrahedron
 XX         YY         ZZ         SIGXX       SIGYY       SIGZZ       TAUXY       TAUYZ       TAUZX       SIGV
  +1.38E+04  +7.19E+05  +8.33E+04  -1.951E+02  -8.748E+02  -2.471E+02  +5.181E+01  -9.337E+02  +1.223E+02  +1.760E+03
  +3.31E+04  +7.15E+05  +5.92E+04  -1.951E+02  -8.748E+02  -2.471E+02  +5.181E+01  -9.337E+02  +1.223E+02  +1.760E+03
  +3.90E+04  +7.27E+05  +7.59E+04  -1.951E+02  -8.748E+02  -2.471E+02  +5.181E+01  -9.337E+02  +1.223E+02  +1.760E+03
  +1.38E+04  +7.30E+05  +6.10E+04  -1.951E+02  -8.748E+02  -2.471E+02  +5.181E+01  -9.337E+02  +1.223E+02  +1.760E+03

element # = 227     type =4-n tetrahedron
 XX         YY         ZZ         SIGXX       SIGYY       SIGZZ       TAUXY       TAUYZ       TAUZX       SIGV
  +8.81E+04  +7.56E+04  +1.62E+05  +1.293E+02  +1.500E+04  +5.001E+02  -8.476E+02  -3.469E+02  -8.997E+02  +1.486E+04
  +8.51E+04  +9.76E+04  +1.67E+05  +1.293E+02  +1.500E+04  +5.001E+02  -8.476E+02  -3.469E+02  -8.997E+02  +1.486E+04
  +1.09E+05  +1.12E+05  +1.53E+05  +1.293E+02  +1.500E+04  +5.001E+02  -8.476E+02  -3.469E+02  -8.997E+02  +1.486E+04
  +9.71E+04  +9.12E+04  +1.81E+05  +1.293E+02  +1.500E+04  +5.001E+02  -8.476E+02  -3.469E+02  -8.997E+02  +1.486E+04

element # = 228     type =4-n tetrahedron
 XX         YY         ZZ         SIGXX       SIGYY       SIGZZ       TAUXY       TAUYZ       TAUZX       SIGV
  +6.51E+04  +6.45E+05  +1.94E+05  +4.228E+02  +4.289E+03  -5.133E+01  -8.605E+01  -3.476E+02  +7.325E+01  +4.172E+03
  +8.74E+04  +6.35E+05  +1.94E+05  +4.228E+02  +4.289E+03  -5.133E+01  -8.605E+01  -3.476E+02  +7.325E+01  +4.172E+03
  +8.74E+04  +6.56E+05  +1.94E+05  +4.228E+02  +4.289E+03  -5.133E+01  -8.605E+01  -3.476E+02  +7.325E+01  +4.172E+03
  +6.90E+04  +6.53E+05  +1.75E+05  +4.228E+02  +4.289E+03  -5.133E+01  -8.605E+01  -3.476E+02  +7.325E+01  +4.172E+03

element # = 229     type =4-n tetrahedron
 XX         YY         ZZ         SIGXX       SIGYY       SIGZZ       TAUXY       TAUYZ       TAUZX       SIGV
  +1.66E+05  +8.88E+05  +1.36E+05  -1.261E+02  -1.010E+02  -4.451E+02  +2.333E+01  -4.170E+02  +9.275E+00  +7.962E+02
  +1.92E+05  +8.87E+05  +1.36E+05  -1.261E+02  -1.010E+02  -4.451E+02  +2.333E+01  -4.170E+02  +9.275E+00  +7.962E+02
  +1.92E+05  +8.99E+05  +1.14E+05  -1.261E+02  -1.010E+02  -4.451E+02  +2.333E+01  -4.170E+02  +9.275E+00  +7.962E+02
  +1.92E+05  +8.76E+05  +1.14E+05  -1.261E+02  -1.010E+02  -4.451E+02  +2.333E+01  -4.170E+02  +9.275E+00  +7.962E+02

element # = 230     type =4-n tetrahedron
 XX         YY         ZZ         SIGXX       SIGYY       SIGZZ       TAUXY       TAUYZ       TAUZX       SIGV
  +1.25E+05  +7.50E+05  +4.04E+04  -1.789E+02  -2.361E+03  -3.964E+02  -1.162E+02  -3.954E+02  +5.580E+01  +2.203E+03
  +1.11E+05  +7.31E+05  +9.54E+03  -1.789E+02  -2.361E+03  -3.964E+02  -1.162E+02  -3.954E+02  +5.580E+01  +2.203E+03
  +1.34E+05  +7.42E+05  +9.54E+03  -1.789E+02  -2.361E+03  -3.964E+02  -1.162E+02  -3.954E+02  +5.580E+01  +2.203E+03
  +1.11E+05  +7.53E+05  +9.54E+03  -1.789E+02  -2.361E+03  -3.964E+02  -1.162E+02  -3.954E+02  +5.580E+01  +2.203E+03

element # = 231     type =4-n tetrahedron
 XX         YY         ZZ         SIGXX       SIGYY       SIGZZ       TAUXY       TAUYZ       TAUZX       SIGV
  +5.97E+03  +7.13E+05  +7.87E+04  -1.427E+02  -1.421E+03  -4.338E+02  +1.408E+01  -1.058E+03  +1.561E+02  +2.186E+03
  +5.97E+03  +7.24E+05  +5.64E+04  -1.427E+02  -1.421E+03  -4.338E+02  +1.408E+01  -1.058E+03  +1.561E+02  +2.186E+03
  +5.97E+03  +7.03E+05  +5.64E+04  -1.427E+02  -1.421E+03  -4.338E+02  +1.408E+01  -1.058E+03  +1.561E+02  +2.186E+03
  +2.53E+04  +7.09E+05  +5.46E+04  -1.427E+02  -1.421E+03  -4.338E+02  +1.408E+01  -1.058E+03  +1.561E+02  +2.186E+03

element # = 232     type =4-n tetrahedron
 XX         YY         ZZ         SIGXX       SIGYY       SIGZZ       TAUXY       TAUYZ       TAUZX       SIGV
  +1.86E+05  +9.05E+05  +6.98E+03  +9.064E+00  -2.450E+02  -2.108E+01  -3.928E+01  -1.491E+02  +1.985E+00  +3.594E+02
  +1.62E+05  +9.23E+05  +6.98E+03  +9.064E+00  -2.450E+02  -2.108E+01  -3.928E+01  -1.491E+02  +1.985E+00  +3.594E+02
  +1.86E+05  +8.97E+05  +2.95E+04  +9.064E+00  -2.450E+02  -2.108E+01  -3.928E+01  -1.491E+02  +1.985E+00  +3.594E+02
  +1.63E+05  +8.97E+05  +6.98E+03  +9.064E+00  -2.450E+02  -2.108E+01  -3.928E+01  -1.491E+02  +1.985E+00  +3.594E+02

element # = 233     type =4-n tetrahedron
 XX         YY         ZZ         SIGXX       SIGYY       SIGZZ       TAUXY       TAUYZ       TAUZX       SIGV
  +3.82E+04  +8.29E+05  +1.86E+05  +1.254E+00  +8.199E+02  -4.095E+02  -5.628E+01  -2.843E+02  +2.749E+01  +1.196E+03
  +1.57E+04  +8.29E+05  +1.64E+05  +1.254E+00  +8.199E+02  -4.095E+02  -5.628E+01  -2.843E+02  +2.749E+01  +1.196E+03
  +1.57E+04  +8.17E+05  +1.86E+05  +1.254E+00  +8.199E+02  -4.095E+02  -5.628E+01  -2.843E+02  +2.749E+01  +1.196E+03
  +4.42E+04  +8.16E+05  +1.63E+05  +1.254E+00  +8.199E+02  -4.095E+02  -5.628E+01  -2.843E+02  +2.749E+01  +1.196E+03

element # = 234     type =4-n tetrahedron
 XX         YY         ZZ         SIGXX       SIGYY       SIGZZ       TAUXY       TAUYZ       TAUZX       SIGV
  +1.80E+05  +6.19E+05  +1.94E+05  +3.311E+02  +5.494E+03  -1.145E+02  -3.579E+01  -7.240E+02  +2.195E+02  +5.557E+03
  +1.58E+05  +6.17E+05  +1.73E+05  +3.311E+02  +5.494E+03  -1.145E+02  -3.579E+01  -7.240E+02  +2.195E+02  +5.557E+03
  +1.57E+05  +6.29E+05  +1.94E+05  +3.311E+02  +5.494E+03  -1.145E+02  -3.579E+01  -7.240E+02  +2.195E+02  +5.557E+03
  +1.57E+05  +6.08E+05  +1.94E+05  +3.311E+02  +5.494E+03  -1.145E+02  -3.579E+01  -7.240E+02  +2.195E+02  +5.557E+03

element # = 235     type =4-n tetrahedron
 XX         YY         ZZ         SIGXX       SIGYY       SIGZZ       TAUXY       TAUYZ       TAUZX       SIGV
  +5.35E+04  +7.60E+05  +4.98E+04  +1.270E+01  -4.809E+02  -1.645E+02  +2.755E+01  -7.046E+02  -3.615E+01  +1.297E+03
  +2.65E+04  +7.76E+05  +5.52E+04  +1.270E+01  -4.809E+02  -1.645E+02  +2.755E+01  -7.046E+02  -3.615E+01  +1.297E+03
  +5.99E+04  +7.78E+05  +6.22E+04  +1.270E+01  -4.809E+02  -1.645E+02  +2.755E+01  -7.046E+02  -3.615E+01  +1.297E+03
  +5.17E+04  +7.52E+05  +7.01E+04  +1.270E+01  -4.809E+02  -1.645E+02  +2.755E+01  -7.046E+02  -3.615E+01  +1.297E+03

element # = 236     type =4-n tetrahedron
 XX         YY         ZZ         SIGXX       SIGYY       SIGZZ       TAUXY       TAUYZ       TAUZX       SIGV
  +6.96E+04  +4.88E+05  +1.77E+05  +6.234E+02  +9.044E+03  +4.094E+02  -1.205E+02  -1.370E+03  -1.996E+02  +8.863E+03
  +8.76E+04  +5.08E+05  +1.94E+05  +6.234E+02  +9.044E+03  +4.094E+02  -1.205E+02  -1.370E+03  -1.996E+02  +8.863E+03
  +8.76E+04  +4.87E+05  +1.94E+05  +6.234E+02  +9.044E+03  +4.094E+02  -1.205E+02  -1.370E+03  -1.996E+02  +8.863E+03
  +6.52E+04  +4.97E+05  +1.94E+05  +6.234E+02  +9.044E+03  +4.094E+02  -1.205E+02  -1.370E+03  -1.996E+02  +8.863E+03

element # = 237     type =4-n tetrahedron
 XX         YY         ZZ         SIGXX       SIGYY       SIGZZ       TAUXY       TAUYZ       TAUZX       SIGV
  +1.90E+05  +7.41E+05  +1.35E+05  -3.034E+02  -3.586E+01  -5.753E+02  -5.907E+01  -8.789E+02  -9.467E+01  +1.604E+03
  +1.57E+05  +7.47E+05  +1.31E+05  -3.034E+02  -3.586E+01  -5.753E+02  -5.907E+01  -8.789E+02  -9.467E+01  +1.604E+03
  +1.90E+05  +7.30E+05  +1.13E+05  -3.034E+02  -3.586E+01  -5.753E+02  -5.907E+01  -8.789E+02  -9.467E+01  +1.604E+03
  +1.90E+05  +7.52E+05  +1.13E+05  -3.034E+02  -3.586E+01  -5.753E+02  -5.907E+01  -8.789E+02  -9.467E+01  +1.604E+03

element # = 238     type =4-n tetrahedron
 XX         YY         ZZ         SIGXX       SIGYY       SIGZZ       TAUXY       TAUYZ       TAUZX       SIGV
  +3.45E+04  +1.06E+05  +1.88E+05  -5.726E+02  +1.884E+04  -5.918E+02  +7.168E+02  -1.464E+03  +2.172E+02  +1.963E+04
  +1.20E+04  +1.07E+05  +1.66E+05  -5.726E+02  +1.884E+04  -5.918E+02  +7.168E+02  -1.464E+03  +2.172E+02  +1.963E+04
  +1.20E+04  +9.84E+04  +1.88E+05  -5.726E+02  +1.884E+04  -5.918E+02  +7.168E+02  -1.464E+03  +2.172E+02  +1.963E+04
  +2.81E+04  +9.13E+04  +1.73E+05  -5.726E+02  +1.884E+04  -5.918E+02  +7.168E+02  -1.464E+03  +2.172E+02  +1.963E+04

element # = 239     type =4-n tetrahedron
 XX         YY         ZZ         SIGXX       SIGYY       SIGZZ       TAUXY       TAUYZ       TAUZX       SIGV
  +1.24E+05  +2.14E+04  +1.94E+05  +3.569E+03  +2.869E+04  +6.956E+02  -1.117E+03  -1.496E+03  -1.033E+03  +2.693E+04
  +1.33E+05  +4.71E+04  +1.76E+05  +3.569E+03  +2.869E+04  +6.956E+02  -1.117E+03  -1.496E+03  -1.033E+03  +2.693E+04
  +1.36E+05  +4.63E+04  +1.94E+05  +3.569E+03  +2.869E+04  +6.956E+02  -1.117E+03  -1.496E+03  -1.033E+03  +2.693E+04
  +1.15E+05  +3.97E+04  +1.94E+05  +3.569E+03  +2.869E+04  +6.956E+02  -1.117E+03  -1.496E+03  -1.033E+03  +2.693E+04

element # = 240     type =4-n tetrahedron
 XX         YY         ZZ         SIGXX       SIGYY       SIGZZ       TAUXY       TAUYZ       TAUZX       SIGV
  +1.41E+05  +4.15E+04  +1.76E+05  +1.068E+04  +3.176E+04  +3.839E+03  -2.107E+03  -1.408E+03  -1.597E+03  +2.573E+04
  +1.32E+05  +1.57E+04  +1.94E+05  +1.068E+04  +3.176E+04  +3.839E+03  -2.107E+03  -1.408E+03  -1.597E+03  +2.573E+04
  +1.44E+05  +4.07E+04  +1.94E+05  +1.068E+04  +3.176E+04  +3.839E+03  -2.107E+03  -1.408E+03  -1.597E+03  +2.573E+04
  +1.50E+05  +1.57E+04  +1.94E+05  +1.068E+04  +3.176E+04  +3.839E+03  -2.107E+03  -1.408E+03  -1.597E+03  +2.573E+04

element # = 241     type =4-n tetrahedron
 XX         YY         ZZ         SIGXX       SIGYY       SIGZZ       TAUXY       TAUYZ       TAUZX       SIGV
  +5.69E+04  +1.92E+05  +1.71E+05  +1.828E+03  +1.886E+04  +6.147E+02  -1.305E+02  -1.414E+03  +1.569E+02  +1.784E+04
  +7.87E+04  +2.00E+05  +1.64E+05  +1.828E+03  +1.886E+04  +6.147E+02  -1.305E+02  -1.414E+03  +1.569E+02  +1.784E+04
  +8.34E+04  +1.93E+05  +1.88E+05  +1.828E+03  +1.886E+04  +6.147E+02  -1.305E+02  -1.414E+03  +1.569E+02  +1.784E+04
  +6.11E+04  +2.04E+05  +1.88E+05  +1.828E+03  +1.886E+04  +6.147E+02  -1.305E+02  -1.414E+03  +1.569E+02  +1.784E+04

element # = 242     type =4-n tetrahedron
 XX         YY         ZZ         SIGXX       SIGYY       SIGZZ       TAUXY       TAUYZ       TAUZX       SIGV
  +3.87E+04  +9.67E+05  +1.40E+05  -7.336E+00  +7.909E-01  -4.557E+02  +7.043E-01  -5.963E+01  +2.985E+00  +4.641E+02
  +3.82E+04  +9.72E+05  +1.59E+05  -7.336E+00  +7.909E-01  -4.557E+02  +7.043E-01  -5.963E+01  +2.985E+00  +4.641E+02
  +1.91E+04  +9.88E+05  +1.55E+05  -7.336E+00  +7.909E-01  -4.557E+02  +7.043E-01  -5.963E+01  +2.985E+00  +4.641E+02
  +4.22E+04  +9.88E+05  +1.50E+05  -7.336E+00  +7.909E-01  -4.557E+02  +7.043E-01  -5.963E+01  +2.985E+00  +4.641E+02

element # = 243     type =4-n tetrahedron
 XX         YY         ZZ         SIGXX       SIGYY       SIGZZ       TAUXY       TAUYZ       TAUZX       SIGV
  +7.31E+04  +7.54E+05  +1.64E+05  -2.939E+01  +8.579E+02  -6.612E+02  +2.397E+01  -3.273E+02  +1.727E+01  +1.439E+03
  +1.07E+05  +7.51E+05  +1.53E+05  -2.939E+01  +8.579E+02  -6.612E+02  +2.397E+01  -3.273E+02  +1.727E+01  +1.439E+03
  +8.77E+04  +7.35E+05  +1.56E+05  -2.939E+01  +8.579E+02  -6.612E+02  +2.397E+01  -3.273E+02  +1.727E+01  +1.439E+03
  +9.48E+04  +7.55E+05  +1.80E+05  -2.939E+01  +8.579E+02  -6.612E+02  +2.397E+01  -3.273E+02  +1.727E+01  +1.439E+03

element # = 244     type =4-n tetrahedron
 XX         YY         ZZ         SIGXX       SIGYY       SIGZZ       TAUXY       TAUYZ       TAUZX       SIGV
  +1.67E+05  +8.75E+04  +6.42E+04  -2.098E+03  -1.178E+04  -1.213E+03  -1.850E+02  -2.821E+03  -3.240E+03  +1.259E+04
  +1.92E+05  +7.28E+04  +6.00E+04  -2.098E+03  -1.178E+04  -1.213E+03  -1.850E+02  -2.821E+03  -3.240E+03  +1.259E+04
  +1.92E+05  +8.69E+04  +8.13E+04  -2.098E+03  -1.178E+04  -1.213E+03  -1.850E+02  -2.821E+03  -3.240E+03  +1.259E+04
  +1.92E+05  +9.84E+04  +5.91E+04  -2.098E+03  -1.178E+04  -1.213E+03  -1.850E+02  -2.821E+03  -3.240E+03  +1.259E+04

element # = 245     type =4-n tetrahedron
 XX         YY         ZZ         SIGXX       SIGYY       SIGZZ       TAUXY       TAUYZ       TAUZX       SIGV
  +6.55E+04  +7.54E+05  +1.54E+05  +1.608E+02  +1.133E+03  -3.450E+02  -4.872E+01  -5.750E+02  +5.402E+01  +1.643E+03
  +9.94E+04  +7.51E+05  +1.43E+05  +1.608E+02  +1.133E+03  -3.450E+02  -4.872E+01  -5.750E+02  +5.402E+01  +1.643E+03
  +6.27E+04  +7.55E+05  +1.35E+05  +1.608E+02  +1.133E+03  -3.450E+02  -4.872E+01  -5.750E+02  +5.402E+01  +1.643E+03
  +8.01E+04  +7.35E+05  +1.45E+05  +1.608E+02  +1.133E+03  -3.450E+02  -4.872E+01  -5.750E+02  +5.402E+01  +1.643E+03

element # = 246     type =4-n tetrahedron
 XX         YY         ZZ         SIGXX       SIGYY       SIGZZ       TAUXY       TAUYZ       TAUZX       SIGV
  +1.39E+05  +3.23E+05  +8.04E+03  -1.186E+03  -1.525E+04  -9.831E+02  +6.444E+01  -6.650E+02  +7.073E+02  +1.427E+04
  +1.39E+05  +3.44E+05  +8.04E+03  -1.186E+03  -1.525E+04  -9.831E+02  +6.444E+01  -6.650E+02  +7.073E+02  +1.427E+04
  +1.28E+05  +3.35E+05  +3.41E+04  -1.186E+03  -1.525E+04  -9.831E+02  +6.444E+01  -6.650E+02  +7.073E+02  +1.427E+04
  +1.17E+05  +3.34E+05  +8.04E+03  -1.186E+03  -1.525E+04  -9.831E+02  +6.444E+01  -6.650E+02  +7.073E+02  +1.427E+04

element # = 247     type =4-n tetrahedron
 XX         YY         ZZ         SIGXX       SIGYY       SIGZZ       TAUXY       TAUYZ       TAUZX       SIGV
  +1.93E+04  +8.60E+05  +1.96E+05  +4.214E+01  +6.743E+02  -3.631E+02  -4.528E+01  -1.891E+02  -2.067E+01  +9.668E+02
  +3.69E+04  +8.66E+05  +1.82E+05  +4.214E+01  +6.743E+02  -3.631E+02  -4.528E+01  -1.891E+02  -2.067E+01  +9.668E+02
  +4.18E+04  +8.51E+05  +1.96E+05  +4.214E+01  +6.743E+02  -3.631E+02  -4.528E+01  -1.891E+02  -2.067E+01  +9.668E+02
  +4.19E+04  +8.73E+05  +1.96E+05  +4.214E+01  +6.743E+02  -3.631E+02  -4.528E+01  -1.891E+02  -2.067E+01  +9.668E+02

element # = 248     type =4-n tetrahedron
 XX         YY         ZZ         SIGXX       SIGYY       SIGZZ       TAUXY       TAUYZ       TAUZX       SIGV
  +1.60E+05  +7.40E+05  +6.81E+04  -3.531E+02  -1.361E+03  -3.999E+02  -2.251E+02  -1.059E+03  -1.319E+02  +2.131E+03
  +1.91E+05  +7.10E+05  +5.96E+04  -3.531E+02  -1.361E+03  -3.999E+02  -2.251E+02  -1.059E+03  -1.319E+02  +2.131E+03
  +1.91E+05  +7.21E+05  +8.19E+04  -3.531E+02  -1.361E+03  -3.999E+02  -2.251E+02  -1.059E+03  -1.319E+02  +2.131E+03
  +1.91E+05  +7.32E+05  +5.96E+04  -3.531E+02  -1.361E+03  -3.999E+02  -2.251E+02  -1.059E+03  -1.319E+02  +2.131E+03

element # = 249     type =4-n tetrahedron
 XX         YY         ZZ         SIGXX       SIGYY       SIGZZ       TAUXY       TAUYZ       TAUZX       SIGV
  +7.63E+04  +7.09E+05  +6.63E+04  +1.503E+02  -1.235E+03  -1.880E+02  -2.194E+02  -7.251E+02  +6.034E+01  +1.816E+03
  +6.19E+04  +7.35E+05  +5.04E+04  +1.503E+02  -1.235E+03  -1.880E+02  -2.194E+02  -7.251E+02  +6.034E+01  +1.816E+03
  +6.01E+04  +7.27E+05  +7.06E+04  +1.503E+02  -1.235E+03  -1.880E+02  -2.194E+02  -7.251E+02  +6.034E+01  +1.816E+03
  +5.42E+04  +7.14E+05  +5.40E+04  +1.503E+02  -1.235E+03  -1.880E+02  -2.194E+02  -7.251E+02  +6.034E+01  +1.816E+03

element # = 250     type =4-n tetrahedron
 XX         YY         ZZ         SIGXX       SIGYY       SIGZZ       TAUXY       TAUYZ       TAUZX       SIGV
  +1.94E+05  +6.58E+03  +1.94E+05  +1.759E+04  +4.105E+04  +1.759E+04  -4.260E+03  -7.651E+03  +0.000E+00  +2.793E+04
  +1.94E+05  +2.79E+04  +1.94E+05  +1.759E+04  +4.105E+04  +1.759E+04  -4.260E+03  -7.651E+03  +0.000E+00  +2.793E+04
  +1.77E+05  +6.58E+03  +1.94E+05  +1.759E+04  +4.105E+04  +1.759E+04  -4.260E+03  -7.651E+03  +0.000E+00  +2.793E+04
  +1.94E+05  +6.58E+03  +1.77E+05  +1.759E+04  +4.105E+04  +1.759E+04  -4.260E+03  -7.651E+03  +0.000E+00  +2.793E+04

element # = 251     type =4-n tetrahedron
 XX         YY         ZZ         SIGXX       SIGYY       SIGZZ       TAUXY       TAUYZ       TAUZX       SIGV
  +4.32E+04  +2.73E+05  +6.55E+03  -6.505E+02  -1.642E+04  -1.573E+02  +2.218E+02  -1.427E+03  -7.068E+02  +1.626E+04
  +2.08E+04  +2.84E+05  +6.55E+03  -6.505E+02  -1.642E+04  -1.573E+02  +2.218E+02  -1.427E+03  -7.068E+02  +1.626E+04
  +4.32E+04  +2.94E+05  +6.55E+03  -6.505E+02  -1.642E+04  -1.573E+02  +2.218E+02  -1.427E+03  -7.068E+02  +1.626E+04
  +4.34E+04  +2.78E+05  +2.78E+04  -6.505E+02  -1.642E+04  -1.573E+02  +2.218E+02  -1.427E+03  -7.068E+02  +1.626E+04

element # = 252     type =4-n tetrahedron
 XX         YY         ZZ         SIGXX       SIGYY       SIGZZ       TAUXY       TAUYZ       TAUZX       SIGV
  +7.92E+04  +5.15E+05  +1.90E+05  -5.338E+02  +4.797E+03  -6.247E+02  +1.931E+02  -8.827E+02  +1.874E+02  +5.610E+03
  +6.13E+04  +4.95E+05  +1.72E+05  -5.338E+02  +4.797E+03  -6.247E+02  +1.931E+02  -8.827E+02  +1.874E+02  +5.610E+03
  +5.23E+04  +5.16E+05  +1.75E+05  -5.338E+02  +4.797E+03  -6.247E+02  +1.931E+02  -8.827E+02  +1.874E+02  +5.610E+03
  +5.69E+04  +5.04E+05  +1.90E+05  -5.338E+02  +4.797E+03  -6.247E+02  +1.931E+02  -8.827E+02  +1.874E+02  +5.610E+03

element # = 253     type =4-n tetrahedron
 XX         YY         ZZ         SIGXX       SIGYY       SIGZZ       TAUXY       TAUYZ       TAUZX       SIGV
  +4.22E+04  +7.03E+05  +6.37E+03  +4.208E+01  -2.600E+03  -3.930E+01  +6.441E+01  -5.208E+02  -3.554E+01  +2.757E+03
  +4.22E+04  +7.24E+05  +6.37E+03  +4.208E+01  -2.600E+03  -3.930E+01  +6.441E+01  -5.208E+02  -3.554E+01  +2.757E+03
  +3.91E+04  +7.09E+05  +2.70E+04  +4.208E+01  -2.600E+03  -3.930E+01  +6.441E+01  -5.208E+02  -3.554E+01  +2.757E+03
  +1.98E+04  +7.13E+05  +6.37E+03  +4.208E+01  -2.600E+03  -3.930E+01  +6.441E+01  -5.208E+02  -3.554E+01  +2.757E+03

element # = 254     type =4-n tetrahedron
 XX         YY         ZZ         SIGXX       SIGYY       SIGZZ       TAUXY       TAUYZ       TAUZX       SIGV
  +9.35E+04  +8.50E+05  +8.23E+04  -7.098E+01  -3.390E+02  -2.909E+02  -3.469E+01  -5.061E+02  -9.746E+00  +9.130E+02
  +9.14E+04  +8.16E+05  +7.61E+04  -7.098E+01  -3.390E+02  -2.909E+02  -3.469E+01  -5.061E+02  -9.746E+00  +9.130E+02
  +1.15E+05  +8.31E+05  +1.05E+05  -7.098E+01  -3.390E+02  -2.909E+02  -3.469E+01  -5.061E+02  -9.746E+00  +9.130E+02
  +1.20E+05  +8.41E+05  +7.45E+04  -7.098E+01  -3.390E+02  -2.909E+02  -3.469E+01  -5.061E+02  -9.746E+00  +9.130E+02

element # = 255     type =4-n tetrahedron
 XX         YY         ZZ         SIGXX       SIGYY       SIGZZ       TAUXY       TAUYZ       TAUZX       SIGV
  +1.00E+05  +8.70E+05  +2.61E+04  +6.752E+01  -1.341E+02  +1.805E+01  +1.101E+01  -2.818E+02  +2.717E+01  +5.234E+02
  +9.09E+04  +8.73E+05  +6.17E+04  +6.752E+01  -1.341E+02  +1.805E+01  +1.101E+01  -2.818E+02  +2.717E+01  +5.234E+02
  +9.24E+04  +9.00E+05  +4.72E+04  +6.752E+01  -1.341E+02  +1.805E+01  +1.101E+01  -2.818E+02  +2.717E+01  +5.234E+02
  +1.17E+05  +8.65E+05  +5.38E+04  +6.752E+01  -1.341E+02  +1.805E+01  +1.101E+01  -2.818E+02  +2.717E+01  +5.234E+02

element # = 256     type =4-n tetrahedron
 XX         YY         ZZ         SIGXX       SIGYY       SIGZZ       TAUXY       TAUYZ       TAUZX       SIGV
  +6.56E+04  +8.90E+05  +1.13E+05  -2.702E+01  -7.240E+01  -2.885E+02  +3.063E+01  -3.540E+02  +1.520E+01  +6.618E+02
  +5.84E+04  +9.06E+05  +9.20E+04  -2.702E+01  -7.240E+01  -2.885E+02  +3.063E+01  -3.540E+02  +1.520E+01  +6.618E+02
  +7.58E+04  +8.86E+05  +9.14E+04  -2.702E+01  -7.240E+01  -2.885E+02  +3.063E+01  -3.540E+02  +1.520E+01  +6.618E+02
  +9.17E+04  +9.19E+05  +1.07E+05  -2.702E+01  -7.240E+01  -2.885E+02  +3.063E+01  -3.540E+02  +1.520E+01  +6.618E+02

element # = 257     type =4-n tetrahedron
 XX         YY         ZZ         SIGXX       SIGYY       SIGZZ       TAUXY       TAUYZ       TAUZX       SIGV
  +1.93E+05  +4.84E+05  +1.64E+05  -7.077E+02  +4.854E+03  -1.228E+03  +4.702E+02  -1.067E+03  -1.530E+01  +6.179E+03
  +1.71E+05  +4.62E+05  +1.86E+05  -7.077E+02  +4.854E+03  -1.228E+03  +4.702E+02  -1.067E+03  -1.530E+01  +6.179E+03
  +1.93E+05  +4.73E+05  +1.86E+05  -7.077E+02  +4.854E+03  -1.228E+03  +4.702E+02  -1.067E+03  -1.530E+01  +6.179E+03
  +1.93E+05  +4.62E+05  +1.64E+05  -7.077E+02  +4.854E+03  -1.228E+03  +4.702E+02  -1.067E+03  -1.530E+01  +6.179E+03

element # = 258     type =4-n tetrahedron
 XX         YY         ZZ         SIGXX       SIGYY       SIGZZ       TAUXY       TAUYZ       TAUZX       SIGV
  +8.34E+04  +9.84E+05  +8.29E+04  -1.063E+01  -5.832E+01  -1.838E+02  +1.236E+01  -1.062E+02  +1.019E+01  +2.420E+02
  +5.88E+04  +9.66E+05  +7.26E+04  -1.063E+01  -5.832E+01  -1.838E+02  +1.236E+01  -1.062E+02  +1.019E+01  +2.420E+02
  +7.57E+04  +9.52E+05  +5.93E+04  -1.063E+01  -5.832E+01  -1.838E+02  +1.236E+01  -1.062E+02  +1.019E+01  +2.420E+02
  +6.17E+04  +9.84E+05  +6.12E+04  -1.063E+01  -5.832E+01  -1.838E+02  +1.236E+01  -1.062E+02  +1.019E+01  +2.420E+02

element # = 259     type =4-n tetrahedron
 XX         YY         ZZ         SIGXX       SIGYY       SIGZZ       TAUXY       TAUYZ       TAUZX       SIGV
  +3.63E+04  +9.93E+05  +1.43E+05  +8.186E+00  +2.344E+01  -3.980E+02  +7.993E+00  -6.915E+01  -7.649E+00  +4.314E+02
  +3.28E+04  +9.72E+05  +1.33E+05  +8.186E+00  +2.344E+01  -3.980E+02  +7.993E+00  -6.915E+01  -7.649E+00  +4.314E+02
  +1.32E+04  +9.93E+05  +1.30E+05  +8.186E+00  +2.344E+01  -3.980E+02  +7.993E+00  -6.915E+01  -7.649E+00  +4.314E+02
  +1.32E+04  +9.93E+05  +1.48E+05  +8.186E+00  +2.344E+01  -3.980E+02  +7.993E+00  -6.915E+01  -7.649E+00  +4.314E+02

element # = 260     type =4-n tetrahedron
 XX         YY         ZZ         SIGXX       SIGYY       SIGZZ       TAUXY       TAUYZ       TAUZX       SIGV
  +1.14E+05  +5.82E+05  +1.75E+05  -2.583E+02  +2.233E+03  -7.308E+02  +1.300E+02  -8.886E+02  +2.775E+02  +3.203E+03
  +1.34E+05  +5.77E+05  +1.49E+05  -2.583E+02  +2.233E+03  -7.308E+02  +1.300E+02  -8.886E+02  +2.775E+02  +3.203E+03
  +1.37E+05  +6.01E+05  +1.54E+05  -2.583E+02  +2.233E+03  -7.308E+02  +1.300E+02  -8.886E+02  +2.775E+02  +3.203E+03
  +1.15E+05  +6.01E+05  +1.39E+05  -2.583E+02  +2.233E+03  -7.308E+02  +1.300E+02  -8.886E+02  +2.775E+02  +3.203E+03

element # = 261     type =4-n tetrahedron
 XX         YY         ZZ         SIGXX       SIGYY       SIGZZ       TAUXY       TAUYZ       TAUZX       SIGV
  +1.93E+05  +3.68E+05  +1.93E+05  +8.113E+02  +1.377E+04  +5.848E+02  +5.957E+02  -1.143E+03  -6.286E+02  +1.331E+04
  +1.93E+05  +3.46E+05  +1.93E+05  +8.113E+02  +1.377E+04  +5.848E+02  +5.957E+02  -1.143E+03  -6.286E+02  +1.331E+04
  +1.93E+05  +3.57E+05  +1.71E+05  +8.113E+02  +1.377E+04  +5.848E+02  +5.957E+02  -1.143E+03  -6.286E+02  +1.331E+04
  +1.71E+05  +3.57E+05  +1.93E+05  +8.113E+02  +1.377E+04  +5.848E+02  +5.957E+02  -1.143E+03  -6.286E+02  +1.331E+04

element # = 262     type =4-n tetrahedron
 XX         YY         ZZ         SIGXX       SIGYY       SIGZZ       TAUXY       TAUYZ       TAUZX       SIGV
  +3.25E+04  +9.16E+05  +1.44E+05  -3.663E+01  +3.358E+01  -4.148E+02  -3.747E+01  -2.457E+02  +2.034E+01  +6.009E+02
  +1.83E+04  +9.14E+05  +1.16E+05  -3.663E+01  +3.358E+01  -4.148E+02  -3.747E+01  -2.457E+02  +2.034E+01  +6.009E+02
  +4.35E+04  +8.98E+05  +1.29E+05  -3.663E+01  +3.358E+01  -4.148E+02  -3.747E+01  -2.457E+02  +2.034E+01  +6.009E+02
  +3.79E+04  +9.32E+05  +1.28E+05  -3.663E+01  +3.358E+01  -4.148E+02  -3.747E+01  -2.457E+02  +2.034E+01  +6.009E+02

element # = 263     type =4-n tetrahedron
 XX         YY         ZZ         SIGXX       SIGYY       SIGZZ       TAUXY       TAUYZ       TAUZX       SIGV
  +7.01E+04  +7.21E+05  +1.30E+05  -1.989E+02  +3.650E+02  -4.597E+02  -1.936E+02  -7.571E+02  +1.300E+02  +1.554E+03
  +5.28E+04  +7.41E+05  +1.20E+05  -1.989E+02  +3.650E+02  -4.597E+02  -1.936E+02  -7.571E+02  +1.300E+02  +1.554E+03
  +5.50E+04  +7.04E+05  +1.14E+05  -1.989E+02  +3.650E+02  -4.597E+02  -1.936E+02  -7.571E+02  +1.300E+02  +1.554E+03
  +5.78E+04  +7.28E+05  +1.02E+05  -1.989E+02  +3.650E+02  -4.597E+02  -1.936E+02  -7.571E+02  +1.300E+02  +1.554E+03

element # = 264     type =4-n tetrahedron
 XX         YY         ZZ         SIGXX       SIGYY       SIGZZ       TAUXY       TAUYZ       TAUZX       SIGV
  +4.34E+04  +8.02E+05  +5.17E+03  -7.516E+01  -1.269E+03  -1.717E+02  +6.480E+01  -2.107E+02  -6.735E+01  +1.216E+03
  +2.10E+04  +8.12E+05  +5.17E+03  -7.516E+01  -1.269E+03  -1.717E+02  +6.480E+01  -2.107E+02  -6.735E+01  +1.216E+03
  +4.35E+04  +8.24E+05  +5.17E+03  -7.516E+01  -1.269E+03  -1.717E+02  +6.480E+01  -2.107E+02  -6.735E+01  +1.216E+03
  +4.41E+04  +8.20E+05  +2.19E+04  -7.516E+01  -1.269E+03  -1.717E+02  +6.480E+01  -2.107E+02  -6.735E+01  +1.216E+03

element # = 265     type =4-n tetrahedron
 XX         YY         ZZ         SIGXX       SIGYY       SIGZZ       TAUXY       TAUYZ       TAUZX       SIGV
  +1.04E+05  +8.63E+05  +1.74E+05  -7.336E+01  +1.074E+02  -5.357E+02  -1.340E+01  -3.136E+02  +4.368E+00  +7.910E+02
  +1.16E+05  +8.47E+05  +1.43E+05  -7.336E+01  +1.074E+02  -5.357E+02  -1.340E+01  -3.136E+02  +4.368E+00  +7.910E+02
  +1.23E+05  +8.75E+05  +1.52E+05  -7.336E+01  +1.074E+02  -5.357E+02  -1.340E+01  -3.136E+02  +4.368E+00  +7.910E+02
  +8.43E+04  +8.70E+05  +1.42E+05  -7.336E+01  +1.074E+02  -5.357E+02  -1.340E+01  -3.136E+02  +4.368E+00  +7.910E+02

element # = 266     type =4-n tetrahedron
 XX         YY         ZZ         SIGXX       SIGYY       SIGZZ       TAUXY       TAUYZ       TAUZX       SIGV
  +8.29E+04  +8.08E+05  +1.43E+04  +2.086E+02  -5.786E+02  +6.448E+01  +3.387E+01  -4.102E+02  +2.511E+01  +1.018E+03
  +6.06E+04  +7.97E+05  +1.43E+04  +2.086E+02  -5.786E+02  +6.448E+01  +3.387E+01  -4.102E+02  +2.511E+01  +1.018E+03
  +6.13E+04  +8.14E+05  +3.10E+04  +2.086E+02  -5.786E+02  +6.448E+01  +3.387E+01  -4.102E+02  +2.511E+01  +1.018E+03
  +7.16E+04  +7.99E+05  +4.37E+04  +2.086E+02  -5.786E+02  +6.448E+01  +3.387E+01  -4.102E+02  +2.511E+01  +1.018E+03

element # = 267     type =4-n tetrahedron
 XX         YY         ZZ         SIGXX       SIGYY       SIGZZ       TAUXY       TAUYZ       TAUZX       SIGV
  +1.29E+04  +7.02E+05  +9.41E+04  +4.739E+01  -1.007E+02  -1.432E+02  +1.107E+01  -1.051E+03  +1.098E+01  +1.828E+03
  +3.22E+04  +6.97E+05  +7.00E+04  +4.739E+01  -1.007E+02  -1.432E+02  +1.107E+01  -1.051E+03  +1.098E+01  +1.828E+03
  +1.29E+04  +6.81E+05  +9.41E+04  +4.739E+01  -1.007E+02  -1.432E+02  +1.107E+01  -1.051E+03  +1.098E+01  +1.828E+03
  +3.54E+04  +6.87E+05  +9.92E+04  +4.739E+01  -1.007E+02  -1.432E+02  +1.107E+01  -1.051E+03  +1.098E+01  +1.828E+03

element # = 268     type =4-n tetrahedron
 XX         YY         ZZ         SIGXX       SIGYY       SIGZZ       TAUXY       TAUYZ       TAUZX       SIGV
  +3.74E+04  +6.49E+05  +1.87E+05  +2.041E+02  +2.944E+03  -5.504E+02  -7.659E+01  -4.770E+02  -3.091E+01  +3.293E+03
  +1.51E+04  +6.48E+05  +1.65E+05  +2.041E+02  +2.944E+03  -5.504E+02  -7.659E+01  -4.770E+02  -3.091E+01  +3.293E+03
  +4.14E+04  +6.56E+05  +1.69E+05  +2.041E+02  +2.944E+03  -5.504E+02  -7.659E+01  -4.770E+02  -3.091E+01  +3.293E+03
  +1.51E+04  +6.59E+05  +1.87E+05  +2.041E+02  +2.944E+03  -5.504E+02  -7.659E+01  -4.770E+02  -3.091E+01  +3.293E+03

element # = 269     type =4-n tetrahedron
 XX         YY         ZZ         SIGXX       SIGYY       SIGZZ       TAUXY       TAUYZ       TAUZX       SIGV
  +4.30E+04  +3.21E+05  +6.55E+03  -6.103E+02  -1.401E+04  -1.953E+02  +2.275E+02  -1.759E+03  -6.598E+02  +1.401E+04
  +2.06E+04  +3.32E+05  +6.55E+03  -6.103E+02  -1.401E+04  -1.953E+02  +2.275E+02  -1.759E+03  -6.598E+02  +1.401E+04
  +4.30E+04  +3.42E+05  +6.55E+03  -6.103E+02  -1.401E+04  -1.953E+02  +2.275E+02  -1.759E+03  -6.598E+02  +1.401E+04
  +4.27E+04  +3.26E+05  +2.77E+04  -6.103E+02  -1.401E+04  -1.953E+02  +2.275E+02  -1.759E+03  -6.598E+02  +1.401E+04

element # = 270     type =4-n tetrahedron
 XX         YY         ZZ         SIGXX       SIGYY       SIGZZ       TAUXY       TAUYZ       TAUZX       SIGV
  +4.06E+04  +6.95E+05  +1.53E+05  +1.733E+02  +2.396E+03  -1.541E+02  +1.025E+02  -9.803E+02  -1.078E+02  +2.953E+03
  +2.11E+04  +6.87E+05  +1.47E+05  +1.733E+02  +2.396E+03  -1.541E+02  +1.025E+02  -9.803E+02  -1.078E+02  +2.953E+03
  +4.74E+04  +6.73E+05  +1.51E+05  +1.733E+02  +2.396E+03  -1.541E+02  +1.025E+02  -9.803E+02  -1.078E+02  +2.953E+03
  +4.35E+04  +6.83E+05  +1.30E+05  +1.733E+02  +2.396E+03  -1.541E+02  +1.025E+02  -9.803E+02  -1.078E+02  +2.953E+03

element # = 271     type =4-n tetrahedron
 XX         YY         ZZ         SIGXX       SIGYY       SIGZZ       TAUXY       TAUYZ       TAUZX       SIGV
  +2.56E+04  +7.83E+05  +4.37E+04  -2.102E+02  -1.238E+03  -1.577E+02  -3.804E+01  -3.531E+02  -6.047E+01  +1.226E+03
  +5.26E+04  +7.67E+05  +3.83E+04  -2.102E+02  -1.238E+03  -1.577E+02  -3.804E+01  -3.531E+02  -6.047E+01  +1.226E+03
  +5.90E+04  +7.86E+05  +5.07E+04  -2.102E+02  -1.238E+03  -1.577E+02  -3.804E+01  -3.531E+02  -6.047E+01  +1.226E+03
  +4.80E+04  +7.83E+05  +2.13E+04  -2.102E+02  -1.238E+03  -1.577E+02  -3.804E+01  -3.531E+02  -6.047E+01  +1.226E+03

element # = 272     type =4-n tetrahedron
 XX         YY         ZZ         SIGXX       SIGYY       SIGZZ       TAUXY       TAUYZ       TAUZX       SIGV
  +1.85E+05  +2.89E+05  +4.41E+04  -7.203E+00  -8.179E+03  +2.251E+03  +5.090E+02  -2.766E+03  -4.377E+02  +1.071E+04
  +1.62E+05  +2.68E+05  +2.18E+04  -7.203E+00  -8.179E+03  +2.251E+03  +5.090E+02  -2.766E+03  -4.377E+02  +1.071E+04
  +1.57E+05  +2.67E+05  +4.74E+04  -7.203E+00  -8.179E+03  +2.251E+03  +5.090E+02  -2.766E+03  -4.377E+02  +1.071E+04
  +1.85E+05  +2.68E+05  +4.41E+04  -7.203E+00  -8.179E+03  +2.251E+03  +5.090E+02  -2.766E+03  -4.377E+02  +1.071E+04

element # = 273     type =4-n tetrahedron
 XX         YY         ZZ         SIGXX       SIGYY       SIGZZ       TAUXY       TAUYZ       TAUZX       SIGV
  +4.12E+04  +4.69E+05  +1.65E+05  -1.759E+02  +6.397E+03  -9.275E+02  -2.256E+02  -3.539E+02  -1.067E+02  +7.020E+03
  +3.41E+04  +4.49E+05  +1.66E+05  -1.759E+02  +6.397E+03  -9.275E+02  -2.256E+02  -3.539E+02  -1.067E+02  +7.020E+03
  +1.44E+04  +4.56E+05  +1.61E+05  -1.759E+02  +6.397E+03  -9.275E+02  -2.256E+02  -3.539E+02  -1.067E+02  +7.020E+03
  +1.44E+04  +4.67E+05  +1.83E+05  -1.759E+02  +6.397E+03  -9.275E+02  -2.256E+02  -3.539E+02  -1.067E+02  +7.020E+03

element # = 274     type =4-n tetrahedron
 XX         YY         ZZ         SIGXX       SIGYY       SIGZZ       TAUXY       TAUYZ       TAUZX       SIGV
  +5.53E+03  +6.58E+03  +2.34E+04  -1.700E+04  -3.968E+04  -1.700E+04  -4.675E+03  -5.898E+03  +0.000E+00  +2.615E+04
  +2.34E+04  +6.58E+03  +5.53E+03  -1.700E+04  -3.968E+04  -1.700E+04  -4.675E+03  -5.898E+03  +0.000E+00  +2.615E+04
  +5.53E+03  +2.79E+04  +5.53E+03  -1.700E+04  -3.968E+04  -1.700E+04  -4.675E+03  -5.898E+03  +0.000E+00  +2.615E+04
  +5.53E+03  +6.58E+03  +5.53E+03  -1.700E+04  -3.968E+04  -1.700E+04  -4.675E+03  -5.898E+03  +0.000E+00  +2.615E+04

element # = 275     type =4-n tetrahedron
 XX         YY         ZZ         SIGXX       SIGYY       SIGZZ       TAUXY       TAUYZ       TAUZX       SIGV
  +4.14E+04  +7.20E+05  +5.07E+04  -1.723E+02  -1.595E+03  -3.718E+02  +1.845E+01  -6.952E+02  -5.494E+01  +1.800E+03
  +4.91E+04  +7.41E+05  +4.71E+04  -1.723E+02  -1.595E+03  -3.718E+02  +1.845E+01  -6.952E+02  -5.494E+01  +1.800E+03
  +4.73E+04  +7.33E+05  +6.73E+04  -1.723E+02  -1.595E+03  -3.718E+02  +1.845E+01  -6.952E+02  -5.494E+01  +1.800E+03
  +2.21E+04  +7.35E+05  +5.25E+04  -1.723E+02  -1.595E+03  -3.718E+02  +1.845E+01  -6.952E+02  -5.494E+01  +1.800E+03

element # = 276     type =4-n tetrahedron
 XX         YY         ZZ         SIGXX       SIGYY       SIGZZ       TAUXY       TAUYZ       TAUZX       SIGV
  +1.06E+05  +7.45E+05  +6.74E+04  +1.659E+02  -4.004E+02  +1.236E+02  +1.646E+01  -5.341E+02  +5.409E+01  +1.079E+03
  +7.23E+04  +7.34E+05  +7.38E+04  +1.659E+02  -4.004E+02  +1.236E+02  +1.646E+01  -5.341E+02  +5.409E+01  +1.079E+03
  +8.85E+04  +7.17E+05  +6.95E+04  +1.659E+02  -4.004E+02  +1.236E+02  +1.646E+01  -5.341E+02  +5.409E+01  +1.079E+03
  +7.41E+04  +7.43E+05  +5.36E+04  +1.659E+02  -4.004E+02  +1.236E+02  +1.646E+01  -5.341E+02  +5.409E+01  +1.079E+03

element # = 277     type =4-n tetrahedron
 XX         YY         ZZ         SIGXX       SIGYY       SIGZZ       TAUXY       TAUYZ       TAUZX       SIGV
  +6.49E+04  +2.72E+05  +1.71E+05  +2.494E+03  +1.953E+04  +9.416E+02  -6.902E+02  +1.055E+02  -7.683E+02  +1.795E+04
  +9.05E+04  +2.77E+05  +1.88E+05  +2.494E+03  +1.953E+04  +9.416E+02  -6.902E+02  +1.055E+02  -7.683E+02  +1.795E+04
  +8.55E+04  +2.75E+05  +1.64E+05  +2.494E+03  +1.953E+04  +9.416E+02  -6.902E+02  +1.055E+02  -7.683E+02  +1.795E+04
  +9.05E+04  +2.55E+05  +1.88E+05  +2.494E+03  +1.953E+04  +9.416E+02  -6.902E+02  +1.055E+02  -7.683E+02  +1.795E+04

element # = 278     type =4-n tetrahedron
 XX         YY         ZZ         SIGXX       SIGYY       SIGZZ       TAUXY       TAUYZ       TAUZX       SIGV
  +1.03E+05  +2.09E+04  +1.63E+05  +3.702E+02  +1.405E+04  -2.425E+03  +1.171E+02  -6.244E+02  -2.999E+01  +1.531E+04
  +1.21E+05  +4.67E+04  +1.64E+05  +3.702E+02  +1.405E+04  -2.425E+03  +1.171E+02  -6.244E+02  -2.999E+01  +1.531E+04
  +1.03E+05  +3.92E+04  +1.83E+05  +3.702E+02  +1.405E+04  -2.425E+03  +1.171E+02  -6.244E+02  -2.999E+01  +1.531E+04
  +9.39E+04  +4.45E+04  +1.63E+05  +3.702E+02  +1.405E+04  -2.425E+03  +1.171E+02  -6.244E+02  -2.999E+01  +1.531E+04

element # = 279     type =4-n tetrahedron
 XX         YY         ZZ         SIGXX       SIGYY       SIGZZ       TAUXY       TAUYZ       TAUZX       SIGV
  +5.34E+04  +1.21E+05  +1.55E+05  +2.334E+02  +1.420E+04  -1.331E+03  +6.349E+02  -4.525E+03  +1.346E+03  +1.695E+04
  +4.56E+04  +9.34E+04  +1.58E+05  +2.334E+02  +1.420E+04  -1.331E+03  +6.349E+02  -4.525E+03  +1.346E+03  +1.695E+04
  +6.21E+04  +1.03E+05  +1.60E+05  +2.334E+02  +1.420E+04  -1.331E+03  +6.349E+02  -4.525E+03  +1.346E+03  +1.695E+04
  +5.20E+04  +1.01E+05  +1.38E+05  +2.334E+02  +1.420E+04  -1.331E+03  +6.349E+02  -4.525E+03  +1.346E+03  +1.695E+04

element # = 280     type =4-n tetrahedron
 XX         YY         ZZ         SIGXX       SIGYY       SIGZZ       TAUXY       TAUYZ       TAUZX       SIGV
  +8.11E+04  +6.30E+05  +1.25E+05  -1.562E+02  +7.814E+02  -4.035E+02  +4.058E+01  -8.705E+02  +2.207E+01  +1.858E+03
  +5.72E+04  +6.60E+05  +1.21E+05  -1.562E+02  +7.814E+02  -4.035E+02  +4.058E+01  -8.705E+02  +2.207E+01  +1.858E+03
  +6.11E+04  +6.50E+05  +1.42E+05  -1.562E+02  +7.814E+02  -4.035E+02  +4.058E+01  -8.705E+02  +2.207E+01  +1.858E+03
  +5.20E+04  +6.32E+05  +1.26E+05  -1.562E+02  +7.814E+02  -4.035E+02  +4.058E+01  -8.705E+02  +2.207E+01  +1.858E+03

element # = 281     type =4-n tetrahedron
 XX         YY         ZZ         SIGXX       SIGYY       SIGZZ       TAUXY       TAUYZ       TAUZX       SIGV
  +8.77E+04  +1.56E+05  +5.07E+04  -7.037E+02  -9.188E+03  +5.961E+02  -8.349E+02  -1.334E+03  +1.526E+03  +9.955E+03
  +1.00E+05  +1.82E+05  +2.52E+04  -7.037E+02  -9.188E+03  +5.961E+02  -8.349E+02  -1.334E+03  +1.526E+03  +9.955E+03
  +1.18E+05  +1.75E+05  +5.46E+04  -7.037E+02  -9.188E+03  +5.961E+02  -8.349E+02  -1.334E+03  +1.526E+03  +9.955E+03
  +9.60E+04  +1.94E+05  +5.21E+04  -7.037E+02  -9.188E+03  +5.961E+02  -8.349E+02  -1.334E+03  +1.526E+03  +9.955E+03

element # = 282     type =4-n tetrahedron
 XX         YY         ZZ         SIGXX       SIGYY       SIGZZ       TAUXY       TAUYZ       TAUZX       SIGV
  +1.22E+04  +5.76E+03  +1.48E+05  +3.734E+03  +8.712E+03  +3.734E+03  +8.760E+02  -3.769E+03  +0.000E+00  +8.348E+03
  +2.88E+04  +2.44E+04  +1.34E+05  +3.734E+03  +8.712E+03  +3.734E+03  +8.760E+02  -3.769E+03  +0.000E+00  +8.348E+03
  +1.22E+04  +5.76E+03  +1.30E+05  +3.734E+03  +8.712E+03  +3.734E+03  +8.760E+02  -3.769E+03  +0.000E+00  +8.348E+03
  +3.53E+04  +5.76E+03  +1.43E+05  +3.734E+03  +8.712E+03  +3.734E+03  +8.760E+02  -3.769E+03  +0.000E+00  +8.348E+03

element # = 283     type =4-n tetrahedron
 XX         YY         ZZ         SIGXX       SIGYY       SIGZZ       TAUXY       TAUYZ       TAUZX       SIGV
  +1.37E+04  +3.12E+05  +2.96E+04  -8.448E+02  -1.241E+04  -1.481E+02  -4.484E+01  -1.327E+03  -2.392E+02  +1.216E+04
  +3.61E+04  +3.14E+05  +1.20E+04  -8.448E+02  -1.241E+04  -1.481E+02  -4.484E+01  -1.327E+03  -2.392E+02  +1.216E+04
  +3.58E+04  +3.19E+05  +3.32E+04  -8.448E+02  -1.241E+04  -1.481E+02  -4.484E+01  -1.327E+03  -2.392E+02  +1.216E+04
  +1.37E+04  +3.24E+05  +1.20E+04  -8.448E+02  -1.241E+04  -1.481E+02  -4.484E+01  -1.327E+03  -2.392E+02  +1.216E+04

element # = 284     type =4-n tetrahedron
 XX         YY         ZZ         SIGXX       SIGYY       SIGZZ       TAUXY       TAUYZ       TAUZX       SIGV
  +7.63E+04  +1.46E+05  +1.66E+05  +3.014E+03  +2.148E+04  -1.712E+03  +1.042E+02  -2.486E+03  -1.156E+02  +2.166E+04
  +9.71E+04  +1.67E+05  +1.85E+05  +3.014E+03  +2.148E+04  -1.712E+03  +1.042E+02  -2.486E+03  -1.156E+02  +2.166E+04
  +1.09E+05  +1.43E+05  +1.58E+05  +3.014E+03  +2.148E+04  -1.712E+03  +1.042E+02  -2.486E+03  -1.156E+02  +2.166E+04
  +9.71E+04  +1.45E+05  +1.85E+05  +3.014E+03  +2.148E+04  -1.712E+03  +1.042E+02  -2.486E+03  -1.156E+02  +2.166E+04

element # = 285     type =4-n tetrahedron
 XX         YY         ZZ         SIGXX       SIGYY       SIGZZ       TAUXY       TAUYZ       TAUZX       SIGV
  +6.81E+04  +1.53E+05  +1.46E+05  +2.720E+01  +9.951E+03  -2.716E+03  +9.312E+01  -3.192E+03  +1.189E+03  +1.296E+04
  +8.42E+04  +1.81E+05  +1.41E+05  +2.720E+01  +9.951E+03  -2.716E+03  +9.312E+01  -3.192E+03  +1.189E+03  +1.296E+04
  +6.70E+04  +1.68E+05  +1.23E+05  +2.720E+01  +9.951E+03  -2.716E+03  +9.312E+01  -3.192E+03  +1.189E+03  +1.296E+04
  +1.00E+05  +1.50E+05  +1.37E+05  +2.720E+01  +9.951E+03  -2.716E+03  +9.312E+01  -3.192E+03  +1.189E+03  +1.296E+04

element # = 286     type =4-n tetrahedron
 XX         YY         ZZ         SIGXX       SIGYY       SIGZZ       TAUXY       TAUYZ       TAUZX       SIGV
  +1.47E+05  +7.76E+05  +1.35E+05  +1.458E+02  +7.703E+02  -1.432E+02  +2.830E+01  -5.214E+02  -5.112E+01  +1.216E+03
  +1.80E+05  +8.03E+05  +1.17E+05  +1.458E+02  +7.703E+02  -1.432E+02  +2.830E+01  -5.214E+02  -5.112E+01  +1.216E+03
  +1.80E+05  +7.91E+05  +1.39E+05  +1.458E+02  +7.703E+02  -1.432E+02  +2.830E+01  -5.214E+02  -5.112E+01  +1.216E+03
  +1.48E+05  +8.09E+05  +1.31E+05  +1.458E+02  +7.703E+02  -1.432E+02  +2.830E+01  -5.214E+02  -5.112E+01  +1.216E+03

element # = 287     type =4-n tetrahedron
 XX         YY         ZZ         SIGXX       SIGYY       SIGZZ       TAUXY       TAUYZ       TAUZX       SIGV
  +2.07E+04  +3.04E+05  +3.61E+04  +3.071E+02  -8.083E+03  +5.031E+02  +7.820E+01  -1.556E+02  -7.661E+02  +8.598E+03
  +4.31E+04  +3.05E+05  +1.85E+04  +3.071E+02  -8.083E+03  +5.031E+02  +7.820E+01  -1.556E+02  -7.661E+02  +8.598E+03
  +4.33E+04  +2.89E+05  +3.97E+04  +3.071E+02  -8.083E+03  +5.031E+02  +7.820E+01  -1.556E+02  -7.661E+02  +8.598E+03
  +4.28E+04  +3.10E+05  +3.97E+04  +3.071E+02  -8.083E+03  +5.031E+02  +7.820E+01  -1.556E+02  -7.661E+02  +8.598E+03

element # = 288     type =4-n tetrahedron
 XX         YY         ZZ         SIGXX       SIGYY       SIGZZ       TAUXY       TAUYZ       TAUZX       SIGV
  +1.03E+05  +7.59E+05  +6.63E+04  +1.543E+01  -5.075E+02  -1.915E+02  +4.826E+01  -7.586E+02  +1.279E+02  +1.411E+03
  +7.16E+04  +7.56E+05  +5.25E+04  +1.543E+01  -5.075E+02  -1.915E+02  +4.826E+01  -7.586E+02  +1.279E+02  +1.411E+03
  +7.80E+04  +7.74E+05  +6.48E+04  +1.543E+01  -5.075E+02  -1.915E+02  +4.826E+01  -7.586E+02  +1.279E+02  +1.411E+03
  +6.98E+04  +7.48E+05  +7.27E+04  +1.543E+01  -5.075E+02  -1.915E+02  +4.826E+01  -7.586E+02  +1.279E+02  +1.411E+03

element # = 289     type =4-n tetrahedron
 XX         YY         ZZ         SIGXX       SIGYY       SIGZZ       TAUXY       TAUYZ       TAUZX       SIGV
  +4.91E+04  +2.45E+05  +1.47E+05  +1.633E+03  +1.319E+04  +1.929E+03  -1.177E+03  -2.575E+03  +5.058E+02  +1.246E+04
  +7.00E+04  +2.69E+05  +1.44E+05  +1.633E+03  +1.319E+04  +1.929E+03  -1.177E+03  -2.575E+03  +5.058E+02  +1.246E+04
  +4.94E+04  +2.66E+05  +1.52E+05  +1.633E+03  +1.319E+04  +1.929E+03  -1.177E+03  -2.575E+03  +5.058E+02  +1.246E+04
  +5.09E+04  +2.52E+05  +1.25E+05  +1.633E+03  +1.319E+04  +1.929E+03  -1.177E+03  -2.575E+03  +5.058E+02  +1.246E+04

element # = 290     type =4-n tetrahedron
 XX         YY         ZZ         SIGXX       SIGYY       SIGZZ       TAUXY       TAUYZ       TAUZX       SIGV
  +1.26E+04  +2.94E+05  +7.83E+04  -1.454E+02  -3.899E+03  +1.979E+02  -3.718E+02  -1.891E+03  -3.938E+00  +5.161E+03
  +3.47E+04  +3.13E+05  +6.49E+04  -1.454E+02  -3.899E+03  +1.979E+02  -3.718E+02  -1.891E+03  -3.938E+00  +5.161E+03
  +3.14E+04  +3.07E+05  +9.34E+04  -1.454E+02  -3.899E+03  +1.979E+02  -3.718E+02  -1.891E+03  -3.938E+00  +5.161E+03
  +1.26E+04  +3.14E+05  +7.97E+04  -1.454E+02  -3.899E+03  +1.979E+02  -3.718E+02  -1.891E+03  -3.938E+00  +5.161E+03

element # = 291     type =4-n tetrahedron
 XX         YY         ZZ         SIGXX       SIGYY       SIGZZ       TAUXY       TAUYZ       TAUZX       SIGV
  +1.03E+05  +7.21E+04  +1.88E+05  +6.659E+03  +3.130E+04  +1.298E+03  -3.846E+02  -2.956E+03  +3.479E+02  +2.819E+04
  +1.21E+05  +5.88E+04  +1.70E+05  +6.659E+03  +3.130E+04  +1.298E+03  -3.846E+02  -2.956E+03  +3.479E+02  +2.819E+04
  +9.39E+04  +5.66E+04  +1.69E+05  +6.659E+03  +3.130E+04  +1.298E+03  -3.846E+02  -2.956E+03  +3.479E+02  +2.819E+04
  +1.03E+05  +5.13E+04  +1.88E+05  +6.659E+03  +3.130E+04  +1.298E+03  -3.846E+02  -2.956E+03  +3.479E+02  +2.819E+04

element # = 292     type =4-n tetrahedron
 XX         YY         ZZ         SIGXX       SIGYY       SIGZZ       TAUXY       TAUYZ       TAUZX       SIGV
  +5.00E+04  +2.43E+05  +3.06E+04  +1.102E+03  -1.151E+04  +7.833E+02  +1.139E+03  -1.742E+02  +7.002E+02  +1.267E+04
  +7.77E+04  +2.44E+05  +1.22E+04  +1.102E+03  -1.151E+04  +7.833E+02  +1.139E+03  -1.742E+02  +7.002E+02  +1.267E+04
  +5.56E+04  +2.61E+05  +3.34E+04  +1.102E+03  -1.151E+04  +7.833E+02  +1.139E+03  -1.742E+02  +7.002E+02  +1.267E+04
  +5.54E+04  +2.55E+05  +1.22E+04  +1.102E+03  -1.151E+04  +7.833E+02  +1.139E+03  -1.742E+02  +7.002E+02  +1.267E+04

element # = 293     type =4-n tetrahedron
 XX         YY         ZZ         SIGXX       SIGYY       SIGZZ       TAUXY       TAUYZ       TAUZX       SIGV
  +1.38E+04  +2.87E+05  +6.39E+04  -7.425E+02  -8.760E+03  -7.623E+02  +4.404E+02  -2.423E+03  +3.947E+02  +9.099E+03
  +1.38E+04  +2.99E+05  +4.68E+04  -7.425E+02  -8.760E+03  -7.623E+02  +4.404E+02  -2.423E+03  +3.947E+02  +9.099E+03
  +3.64E+04  +2.85E+05  +5.04E+04  -7.425E+02  -8.760E+03  -7.623E+02  +4.404E+02  -2.423E+03  +3.947E+02  +9.099E+03
  +3.59E+04  +3.06E+05  +5.04E+04  -7.425E+02  -8.760E+03  -7.623E+02  +4.404E+02  -2.423E+03  +3.947E+02  +9.099E+03

element # = 294     type =4-n tetrahedron
 XX         YY         ZZ         SIGXX       SIGYY       SIGZZ       TAUXY       TAUYZ       TAUZX       SIGV
  +4.28E+04  +3.41E+05  +3.92E+04  -3.286E+02  -8.015E+03  -6.370E+02  +1.283E+02  -1.154E+03  -8.131E+02  +7.927E+03
  +4.35E+04  +3.74E+05  +3.63E+04  -3.286E+02  -8.015E+03  -6.370E+02  +1.283E+02  -1.154E+03  -8.131E+02  +7.927E+03
  +2.08E+04  +3.55E+05  +3.66E+04  -3.286E+02  -8.015E+03  -6.370E+02  +1.283E+02  -1.154E+03  -8.131E+02  +7.927E+03
  +4.31E+04  +3.57E+05  +1.80E+04  -3.286E+02  -8.015E+03  -6.370E+02  +1.283E+02  -1.154E+03  -8.131E+02  +7.927E+03

element # = 295     type =4-n tetrahedron
 XX         YY         ZZ         SIGXX       SIGYY       SIGZZ       TAUXY       TAUYZ       TAUZX       SIGV
  +6.82E+03  +3.18E+05  +3.54E+04  -4.824E+02  -8.863E+03  -1.007E+02  +7.346E+01  -1.030E+03  +4.823E+02  +8.802E+03
  +6.82E+03  +3.39E+05  +3.64E+04  -4.824E+02  -8.863E+03  -1.007E+02  +7.346E+01  -1.030E+03  +4.823E+02  +8.802E+03
  +6.82E+03  +3.31E+05  +1.78E+04  -4.824E+02  -8.863E+03  -1.007E+02  +7.346E+01  -1.030E+03  +4.823E+02  +8.802E+03
  +2.89E+04  +3.25E+05  +3.89E+04  -4.824E+02  -8.863E+03  -1.007E+02  +7.346E+01  -1.030E+03  +4.823E+02  +8.802E+03

element # = 296     type =4-n tetrahedron
 XX         YY         ZZ         SIGXX       SIGYY       SIGZZ       TAUXY       TAUYZ       TAUZX       SIGV
  +1.93E+05  +4.21E+05  +3.62E+04  +7.186E+02  -4.943E+03  +6.829E+02  +2.381E+02  -8.464E+02  -4.785E+02  +5.904E+03
  +1.71E+05  +4.42E+05  +1.38E+04  +7.186E+02  -4.943E+03  +6.829E+02  +2.381E+02  -8.464E+02  -4.785E+02  +5.904E+03
  +1.93E+05  +4.32E+05  +1.38E+04  +7.186E+02  -4.943E+03  +6.829E+02  +2.381E+02  -8.464E+02  -4.785E+02  +5.904E+03
  +1.93E+05  +4.42E+05  +3.62E+04  +7.186E+02  -4.943E+03  +6.829E+02  +2.381E+02  -8.464E+02  -4.785E+02  +5.904E+03

element # = 297     type =4-n tetrahedron
 XX         YY         ZZ         SIGXX       SIGYY       SIGZZ       TAUXY       TAUYZ       TAUZX       SIGV
  +1.21E+05  +3.45E+05  +3.41E+04  -1.413E+03  -1.518E+04  -1.259E+03  +1.563E+02  -1.356E+03  +1.060E+03  +1.417E+04
  +1.33E+05  +3.54E+05  +8.04E+03  -1.413E+03  -1.518E+04  -1.259E+03  +1.563E+02  -1.356E+03  +1.060E+03  +1.417E+04
  +1.10E+05  +3.65E+05  +8.04E+03  -1.413E+03  -1.518E+04  -1.259E+03  +1.563E+02  -1.356E+03  +1.060E+03  +1.417E+04
  +1.10E+05  +3.43E+05  +8.04E+03  -1.413E+03  -1.518E+04  -1.259E+03  +1.563E+02  -1.356E+03  +1.060E+03  +1.417E+04

element # = 298     type =4-n tetrahedron
 XX         YY         ZZ         SIGXX       SIGYY       SIGZZ       TAUXY       TAUYZ       TAUZX       SIGV
  +1.42E+05  +4.43E+05  +7.49E+03  -2.694E+02  -1.104E+04  -1.158E+03  +5.991E+02  -3.034E+02  -8.331E+02  +1.052E+04
  +1.20E+05  +4.32E+05  +7.49E+03  -2.694E+02  -1.104E+04  -1.158E+03  +5.991E+02  -3.034E+02  -8.331E+02  +1.052E+04
  +1.38E+05  +4.43E+05  +3.17E+04  -2.694E+02  -1.104E+04  -1.158E+03  +5.991E+02  -3.034E+02  -8.331E+02  +1.052E+04
  +1.42E+05  +4.21E+05  +7.49E+03  -2.694E+02  -1.104E+04  -1.158E+03  +5.991E+02  -3.034E+02  -8.331E+02  +1.052E+04

element # = 299     type =4-n tetrahedron
 XX         YY         ZZ         SIGXX       SIGYY       SIGZZ       TAUXY       TAUYZ       TAUZX       SIGV
  +4.18E+04  +2.74E+05  +6.81E+04  +2.216E+03  +2.501E+03  +1.220E+03  -4.556E+01  -2.479E+03  -6.411E+02  +4.586E+03
  +3.79E+04  +2.89E+05  +9.65E+04  +2.216E+03  +2.501E+03  +1.220E+03  -4.556E+01  -2.479E+03  -6.411E+02  +4.586E+03
  +3.97E+04  +2.61E+05  +9.30E+04  +2.216E+03  +2.501E+03  +1.220E+03  -4.556E+01  -2.479E+03  -6.411E+02  +4.586E+03
  +1.92E+04  +2.76E+05  +8.15E+04  +2.216E+03  +2.501E+03  +1.220E+03  -4.556E+01  -2.479E+03  -6.411E+02  +4.586E+03

element # = 300     type =4-n tetrahedron
 XX         YY         ZZ         SIGXX       SIGYY       SIGZZ       TAUXY       TAUYZ       TAUZX       SIGV
  +1.85E+05  +8.72E+05  +1.93E+05  -1.080E+01  +3.883E+02  -4.915E+02  +5.745E+01  -2.008E+02  +1.971E+01  +8.451E+02
  +1.85E+05  +8.93E+05  +1.93E+05  -1.080E+01  +3.883E+02  -4.915E+02  +5.745E+01  -2.008E+02  +1.971E+01  +8.451E+02
  +1.63E+05  +8.85E+05  +1.93E+05  -1.080E+01  +3.883E+02  -4.915E+02  +5.745E+01  -2.008E+02  +1.971E+01  +8.451E+02
  +1.59E+05  +8.86E+05  +1.71E+05  -1.080E+01  +3.883E+02  -4.915E+02  +5.745E+01  -2.008E+02  +1.971E+01  +8.451E+02

element # = 301     type =4-n tetrahedron
 XX         YY         ZZ         SIGXX       SIGYY       SIGZZ       TAUXY       TAUYZ       TAUZX       SIGV
  +1.91E+05  +5.11E+05  +1.13E+05  -1.474E+03  -4.580E+02  -1.198E+03  -3.506E+02  -1.672E+03  -1.776E+02  +3.112E+03
  +1.91E+05  +4.90E+05  +1.13E+05  -1.474E+03  -4.580E+02  -1.198E+03  -3.506E+02  -1.672E+03  -1.776E+02  +3.112E+03
  +1.61E+05  +5.03E+05  +1.31E+05  -1.474E+03  -4.580E+02  -1.198E+03  -3.506E+02  -1.672E+03  -1.776E+02  +3.112E+03
  +1.91E+05  +5.01E+05  +1.35E+05  -1.474E+03  -4.580E+02  -1.198E+03  -3.506E+02  -1.672E+03  -1.776E+02  +3.112E+03

element # = 302     type =4-n tetrahedron
 XX         YY         ZZ         SIGXX       SIGYY       SIGZZ       TAUXY       TAUYZ       TAUZX       SIGV
  +1.37E+05  +9.86E+05  +1.65E+05  -4.466E+01  +6.567E+01  -4.539E+02  -8.792E+00  -4.753E+01  +1.020E+01  +4.818E+02
  +1.14E+05  +9.66E+05  +1.74E+05  -4.466E+01  +6.567E+01  -4.539E+02  -8.792E+00  -4.753E+01  +1.020E+01  +4.818E+02
  +1.24E+05  +9.86E+05  +1.88E+05  -4.466E+01  +6.567E+01  -4.539E+02  -8.792E+00  -4.753E+01  +1.020E+01  +4.818E+02
  +1.37E+05  +9.61E+05  +1.88E+05  -4.466E+01  +6.567E+01  -4.539E+02  -8.792E+00  -4.753E+01  +1.020E+01  +4.818E+02

element # = 303     type =4-n tetrahedron
 XX         YY         ZZ         SIGXX       SIGYY       SIGZZ       TAUXY       TAUYZ       TAUZX       SIGV
  +5.45E+04  +2.76E+05  +6.97E+04  +1.778E+03  +2.452E+03  +1.632E+03  -3.614E+02  -2.410E+03  +1.341E+03  +4.877E+03
  +5.07E+04  +2.91E+05  +9.81E+04  +1.778E+03  +2.452E+03  +1.632E+03  -3.614E+02  -2.410E+03  +1.341E+03  +4.877E+03
  +7.31E+04  +2.86E+05  +8.82E+04  +1.778E+03  +2.452E+03  +1.632E+03  -3.614E+02  -2.410E+03  +1.341E+03  +4.877E+03
  +5.25E+04  +2.64E+05  +9.46E+04  +1.778E+03  +2.452E+03  +1.632E+03  -3.614E+02  -2.410E+03  +1.341E+03  +4.877E+03

element # = 304     type =4-n tetrahedron
 XX         YY         ZZ         SIGXX       SIGYY       SIGZZ       TAUXY       TAUYZ       TAUZX       SIGV
  +3.12E+04  +9.58E+04  +8.55E+04  +7.960E+02  +7.392E+02  +3.858E+03  -2.831E+02  -5.490E+03  -2.478E+02  +1.002E+04
  +1.27E+04  +9.87E+04  +9.88E+04  +7.960E+02  +7.392E+02  +3.858E+03  -2.831E+02  -5.490E+03  -2.478E+02  +1.002E+04
  +1.27E+04  +1.24E+05  +9.90E+04  +7.960E+02  +7.392E+02  +3.858E+03  -2.831E+02  -5.490E+03  -2.478E+02  +1.002E+04
  +3.53E+04  +1.01E+05  +1.08E+05  +7.960E+02  +7.392E+02  +3.858E+03  -2.831E+02  -5.490E+03  -2.478E+02  +1.002E+04

element # = 305     type =4-n tetrahedron
 XX         YY         ZZ         SIGXX       SIGYY       SIGZZ       TAUXY       TAUYZ       TAUZX       SIGV
  +4.36E+04  +3.90E+05  +2.40E+04  -5.798E+02  -1.358E+04  +1.046E+02  +3.563E+02  -9.412E+01  -5.869E+02  +1.341E+04
  +2.09E+04  +3.83E+05  +5.67E+03  -5.798E+02  -1.358E+04  +1.046E+02  +3.563E+02  -9.412E+01  -5.869E+02  +1.341E+04
  +4.32E+04  +3.72E+05  +5.67E+03  -5.798E+02  -1.358E+04  +1.046E+02  +3.563E+02  -9.412E+01  -5.869E+02  +1.341E+04
  +4.32E+04  +3.94E+05  +5.67E+03  -5.798E+02  -1.358E+04  +1.046E+02  +3.563E+02  -9.412E+01  -5.869E+02  +1.341E+04

element # = 306     type =4-n tetrahedron
 XX         YY         ZZ         SIGXX       SIGYY       SIGZZ       TAUXY       TAUYZ       TAUZX       SIGV
  +4.59E+04  +7.19E+05  +8.44E+04  +1.151E+01  +9.327E+00  -9.119E+01  -1.695E+01  -1.000E+03  +1.867E+01  +1.736E+03
  +4.00E+04  +7.07E+05  +6.77E+04  +1.151E+01  +9.327E+00  -9.119E+01  -1.695E+01  -1.000E+03  +1.867E+01  +1.736E+03
  +2.07E+04  +7.11E+05  +9.18E+04  +1.151E+01  +9.327E+00  -9.119E+01  -1.695E+01  -1.000E+03  +1.867E+01  +1.736E+03
  +4.31E+04  +6.96E+05  +9.69E+04  +1.151E+01  +9.327E+00  -9.119E+01  -1.695E+01  -1.000E+03  +1.867E+01  +1.736E+03

element # = 307     type =4-n tetrahedron
 XX         YY         ZZ         SIGXX       SIGYY       SIGZZ       TAUXY       TAUYZ       TAUZX       SIGV
  +8.34E+04  +9.32E+05  +2.76E+04  +8.766E+00  -1.301E+02  -4.630E+01  +2.339E+01  -7.454E+01  +4.386E+00  +1.818E+02
  +9.11E+04  +9.25E+05  +6.53E+03  +8.766E+00  -1.301E+02  -4.630E+01  +2.339E+01  -7.454E+01  +4.386E+00  +1.818E+02
  +9.11E+04  +9.46E+05  +6.53E+03  +8.766E+00  -1.301E+02  -4.630E+01  +2.339E+01  -7.454E+01  +4.386E+00  +1.818E+02
  +6.98E+04  +9.40E+05  +6.53E+03  +8.766E+00  -1.301E+02  -4.630E+01  +2.339E+01  -7.454E+01  +4.386E+00  +1.818E+02

element # = 308     type =4-n tetrahedron
 XX         YY         ZZ         SIGXX       SIGYY       SIGZZ       TAUXY       TAUYZ       TAUZX       SIGV
  +4.68E+04  +2.98E+04  +1.98E+04  -1.060E+04  -3.245E+04  -2.890E+03  -2.176E+03  -2.480E+03  +2.451E+02  +2.717E+04
  +6.50E+04  +1.29E+04  +4.68E+03  -1.060E+04  -3.245E+04  -2.890E+03  -2.176E+03  -2.480E+03  +2.451E+02  +2.717E+04
  +5.27E+04  +3.79E+04  +4.68E+03  -1.060E+04  -3.245E+04  -2.890E+03  -2.176E+03  -2.480E+03  +2.451E+02  +2.717E+04
  +4.71E+04  +1.29E+04  +4.68E+03  -1.060E+04  -3.245E+04  -2.890E+03  -2.176E+03  -2.480E+03  +2.451E+02  +2.717E+04

element # = 309     type =4-n tetrahedron
 XX         YY         ZZ         SIGXX       SIGYY       SIGZZ       TAUXY       TAUYZ       TAUZX       SIGV
  +3.66E+04  +6.01E+05  +1.88E+05  +2.215E+02  +3.964E+03  -5.089E+02  +2.883E+01  -6.483E+02  -8.519E+01  +4.308E+03
  +1.43E+04  +6.01E+05  +1.66E+05  +2.215E+02  +3.964E+03  -5.089E+02  +2.883E+01  -6.483E+02  -8.519E+01  +4.308E+03
  +3.80E+04  +6.10E+05  +1.72E+05  +2.215E+02  +3.964E+03  -5.089E+02  +2.883E+01  -6.483E+02  -8.519E+01  +4.308E+03
  +1.43E+04  +6.12E+05  +1.88E+05  +2.215E+02  +3.964E+03  -5.089E+02  +2.883E+01  -6.483E+02  -8.519E+01  +4.308E+03

element # = 310     type =4-n tetrahedron
 XX         YY         ZZ         SIGXX       SIGYY       SIGZZ       TAUXY       TAUYZ       TAUZX       SIGV
  +1.94E+05  +6.58E+03  +2.34E+04  -1.363E+04  -3.180E+04  -1.363E+04  +4.355E+03  -5.952E+03  +0.000E+00  +2.221E+04
  +1.94E+05  +2.79E+04  +5.53E+03  -1.363E+04  -3.180E+04  -1.363E+04  +4.355E+03  -5.952E+03  +0.000E+00  +2.221E+04
  +1.77E+05  +6.58E+03  +5.53E+03  -1.363E+04  -3.180E+04  -1.363E+04  +4.355E+03  -5.952E+03  +0.000E+00  +2.221E+04
  +1.94E+05  +6.58E+03  +5.53E+03  -1.363E+04  -3.180E+04  -1.363E+04  +4.355E+03  -5.952E+03  +0.000E+00  +2.221E+04

element # = 311     type =4-n tetrahedron
 XX         YY         ZZ         SIGXX       SIGYY       SIGZZ       TAUXY       TAUYZ       TAUZX       SIGV
  +3.28E+04  +4.89E+04  +6.73E+04  +3.150E+03  -6.803E+03  +1.942E+03  +3.265E+02  -5.884E+03  -1.482E+03  +1.412E+04
  +1.62E+04  +5.60E+04  +5.58E+04  +3.150E+03  -6.803E+03  +1.942E+03  +3.265E+02  -5.884E+03  -1.482E+03  +1.412E+04
  +3.38E+04  +4.73E+04  +4.75E+04  +3.150E+03  -6.803E+03  +1.942E+03  +3.265E+02  -5.884E+03  -1.482E+03  +1.412E+04
  +3.48E+04  +6.82E+04  +6.38E+04  +3.150E+03  -6.803E+03  +1.942E+03  +3.265E+02  -5.884E+03  -1.482E+03  +1.412E+04

element # = 312     type =4-n tetrahedron
 XX         YY         ZZ         SIGXX       SIGYY       SIGZZ       TAUXY       TAUYZ       TAUZX       SIGV
  +4.26E+04  +5.94E+05  +1.81E+05  +5.818E+00  +2.658E+03  -6.423E+02  +8.863E+01  -6.174E+02  -2.935E+02  +3.255E+03
  +2.02E+04  +5.94E+05  +1.58E+05  +5.818E+00  +2.658E+03  -6.423E+02  +8.863E+01  -6.174E+02  -2.935E+02  +3.255E+03
  +3.94E+04  +5.83E+05  +1.56E+05  +5.818E+00  +2.658E+03  -6.423E+02  +8.863E+01  -6.174E+02  -2.935E+02  +3.255E+03
  +4.39E+04  +6.03E+05  +1.64E+05  +5.818E+00  +2.658E+03  -6.423E+02  +8.863E+01  -6.174E+02  -2.935E+02  +3.255E+03

element # = 313     type =4-n tetrahedron
 XX         YY         ZZ         SIGXX       SIGYY       SIGZZ       TAUXY       TAUYZ       TAUZX       SIGV
  +4.91E+03  +9.81E+05  +3.55E+04  +4.944E+01  -5.141E+00  -5.264E+00  +6.556E+00  -4.749E+01  -1.271E+01  +1.018E+02
  +4.91E+03  +9.56E+05  +4.10E+04  +4.944E+01  -5.141E+00  -5.264E+00  +6.556E+00  -4.749E+01  -1.271E+01  +1.018E+02
  +2.08E+04  +9.66E+05  +3.31E+04  +4.944E+01  -5.141E+00  -5.264E+00  +6.556E+00  -4.749E+01  -1.271E+01  +1.018E+02
  +4.91E+03  +9.60E+05  +1.76E+04  +4.944E+01  -5.141E+00  -5.264E+00  +6.556E+00  -4.749E+01  -1.271E+01  +1.018E+02

element # = 314     type =4-n tetrahedron
 XX         YY         ZZ         SIGXX       SIGYY       SIGZZ       TAUXY       TAUYZ       TAUZX       SIGV
  +1.93E+05  +6.19E+05  +1.80E+05  -6.155E+01  +1.989E+03  -6.185E+02  +8.601E+01  -7.559E+02  -3.500E+02  +2.786E+03
  +1.93E+05  +6.29E+05  +1.57E+05  -6.155E+01  +1.989E+03  -6.185E+02  +8.601E+01  -7.559E+02  -3.500E+02  +2.786E+03
  +1.72E+05  +6.17E+05  +1.59E+05  -6.155E+01  +1.989E+03  -6.185E+02  +8.601E+01  -7.559E+02  -3.500E+02  +2.786E+03
  +1.93E+05  +6.08E+05  +1.57E+05  -6.155E+01  +1.989E+03  -6.185E+02  +8.601E+01  -7.559E+02  -3.500E+02  +2.786E+03

element # = 315     type =4-n tetrahedron
 XX         YY         ZZ         SIGXX       SIGYY       SIGZZ       TAUXY       TAUYZ       TAUZX       SIGV
  +4.48E+04  +6.41E+05  +1.82E+05  +2.838E+02  +2.685E+03  -4.454E+02  -1.829E+02  -3.298E+02  -1.405E+02  +2.921E+03
  +2.24E+04  +6.41E+05  +1.60E+05  +2.838E+02  +2.685E+03  -4.454E+02  -1.829E+02  -3.298E+02  -1.405E+02  +2.921E+03
  +4.62E+04  +6.29E+05  +1.66E+05  +2.838E+02  +2.685E+03  -4.454E+02  -1.829E+02  -3.298E+02  -1.405E+02  +2.921E+03
  +4.87E+04  +6.49E+05  +1.63E+05  +2.838E+02  +2.685E+03  -4.454E+02  -1.829E+02  -3.298E+02  -1.405E+02  +2.921E+03

element # = 316     type =4-n tetrahedron
 XX         YY         ZZ         SIGXX       SIGYY       SIGZZ       TAUXY       TAUYZ       TAUZX       SIGV
  +1.23E+05  +7.31E+05  +5.84E+04  +1.225E+02  -8.336E+02  +1.615E+02  +2.379E+02  -7.075E+02  -1.124E+02  +1.632E+03
  +1.09E+05  +7.12E+05  +2.75E+04  +1.225E+02  -8.336E+02  +1.615E+02  +2.379E+02  -7.075E+02  -1.124E+02  +1.632E+03
  +1.06E+05  +7.03E+05  +6.05E+04  +1.225E+02  -8.336E+02  +1.615E+02  +2.379E+02  -7.075E+02  -1.124E+02  +1.632E+03
  +1.28E+05  +6.91E+05  +5.27E+04  +1.225E+02  -8.336E+02  +1.615E+02  +2.379E+02  -7.075E+02  -1.124E+02  +1.632E+03

element # = 317     type =4-n tetrahedron
 XX         YY         ZZ         SIGXX       SIGYY       SIGZZ       TAUXY       TAUYZ       TAUZX       SIGV
  +1.86E+05  +3.19E+05  +2.93E+04  -1.369E+03  -1.549E+04  -1.590E+03  -2.673E+02  -1.773E+03  +3.427E+02  +1.436E+04
  +1.64E+05  +3.40E+05  +6.91E+03  -1.369E+03  -1.549E+04  -1.590E+03  -2.673E+02  -1.773E+03  +3.427E+02  +1.436E+04
  +1.64E+05  +3.19E+05  +6.91E+03  -1.369E+03  -1.549E+04  -1.590E+03  -2.673E+02  -1.773E+03  +3.427E+02  +1.436E+04
  +1.86E+05  +3.30E+05  +6.91E+03  -1.369E+03  -1.549E+04  -1.590E+03  -2.673E+02  -1.773E+03  +3.427E+02  +1.436E+04

element # = 318     type =4-n tetrahedron
 XX         YY         ZZ         SIGXX       SIGYY       SIGZZ       TAUXY       TAUYZ       TAUZX       SIGV
  +1.93E+05  +5.48E+05  +1.71E+05  +3.657E+01  +6.651E+03  -6.250E+02  +2.618E+02  -9.374E+02  -2.572E+02  +7.184E+03
  +1.93E+05  +5.37E+05  +1.93E+05  +3.657E+01  +6.651E+03  -6.250E+02  +2.618E+02  -9.374E+02  -2.572E+02  +7.184E+03
  +1.71E+05  +5.48E+05  +1.93E+05  +3.657E+01  +6.651E+03  -6.250E+02  +2.618E+02  -9.374E+02  -2.572E+02  +7.184E+03
  +1.93E+05  +5.58E+05  +1.93E+05  +3.657E+01  +6.651E+03  -6.250E+02  +2.618E+02  -9.374E+02  -2.572E+02  +7.184E+03

element # = 319     type =4-n tetrahedron
 XX         YY         ZZ         SIGXX       SIGYY       SIGZZ       TAUXY       TAUYZ       TAUZX       SIGV
  +4.21E+04  +1.36E+05  +6.04E+04  -1.566E+03  -1.483E+04  -7.925E+02  +3.008E+02  -2.273E+03  +1.846E+03  +1.459E+04
  +9.94E+03  +1.52E+05  +5.51E+04  -1.566E+03  -1.483E+04  -7.925E+02  +3.008E+02  -2.273E+03  +1.846E+03  +1.459E+04
  +9.94E+03  +1.44E+05  +7.98E+04  -1.566E+03  -1.483E+04  -7.925E+02  +3.008E+02  -2.273E+03  +1.846E+03  +1.459E+04
  +9.94E+03  +1.29E+05  +5.73E+04  -1.566E+03  -1.483E+04  -7.925E+02  +3.008E+02  -2.273E+03  +1.846E+03  +1.459E+04

element # = 320     type =4-n tetrahedron
 XX         YY         ZZ         SIGXX       SIGYY       SIGZZ       TAUXY       TAUYZ       TAUZX       SIGV
  +1.70E+05  +6.33E+05  +1.02E+05  +4.009E+02  +9.592E+02  +9.170E+01  +1.226E+02  -8.903E+02  +5.358E+01  +1.735E+03
  +1.42E+05  +6.59E+05  +1.18E+05  +4.009E+02  +9.592E+02  +9.170E+01  +1.226E+02  -8.903E+02  +5.358E+01  +1.735E+03
  +1.27E+05  +6.31E+05  +1.11E+05  +4.009E+02  +9.592E+02  +9.170E+01  +1.226E+02  -8.903E+02  +5.358E+01  +1.735E+03
  +1.45E+05  +6.56E+05  +8.23E+04  +4.009E+02  +9.592E+02  +9.170E+01  +1.226E+02  -8.903E+02  +5.358E+01  +1.735E+03

element # = 321     type =4-n tetrahedron
 XX         YY         ZZ         SIGXX       SIGYY       SIGZZ       TAUXY       TAUYZ       TAUZX       SIGV
  +9.40E+04  +6.11E+05  +1.84E+05  +8.980E+02  +5.186E+03  +4.399E+02  +9.526E+01  -4.521E+02  -5.217E+01  +4.605E+03
  +9.40E+04  +5.90E+05  +1.84E+05  +8.980E+02  +5.186E+03  +4.399E+02  +9.526E+01  -4.521E+02  -5.217E+01  +4.605E+03
  +9.57E+04  +6.09E+05  +1.48E+05  +8.980E+02  +5.186E+03  +4.399E+02  +9.526E+01  -4.521E+02  -5.217E+01  +4.605E+03
  +7.31E+04  +6.09E+05  +1.68E+05  +8.980E+02  +5.186E+03  +4.399E+02  +9.526E+01  -4.521E+02  -5.217E+01  +4.605E+03

element # = 322     type =4-n tetrahedron
 XX         YY         ZZ         SIGXX       SIGYY       SIGZZ       TAUXY       TAUYZ       TAUZX       SIGV
  +8.66E+04  +5.87E+05  +1.95E+05  +5.737E+02  +5.064E+03  +3.580E+02  -8.587E+01  -2.201E+02  +6.188E+01  +4.621E+03
  +8.66E+04  +6.09E+05  +1.95E+05  +5.737E+02  +5.064E+03  +3.580E+02  -8.587E+01  -2.201E+02  +6.188E+01  +4.621E+03
  +6.43E+04  +5.98E+05  +1.95E+05  +5.737E+02  +5.064E+03  +3.580E+02  -8.587E+01  -2.201E+02  +6.188E+01  +4.621E+03
  +6.57E+04  +6.07E+05  +1.79E+05  +5.737E+02  +5.064E+03  +3.580E+02  -8.587E+01  -2.201E+02  +6.188E+01  +4.621E+03

element # = 323     type =4-n tetrahedron
 XX         YY         ZZ         SIGXX       SIGYY       SIGZZ       TAUXY       TAUYZ       TAUZX       SIGV
  +3.28E+04  +6.14E+05  +3.52E+04  -5.284E+01  -2.719E+03  +9.188E+01  +5.531E+01  -6.933E+02  -2.798E+01  +2.995E+03
  +1.19E+04  +6.25E+05  +1.79E+04  -5.284E+01  -2.719E+03  +9.188E+01  +5.531E+01  -6.933E+02  -2.798E+01  +2.995E+03
  +2.94E+04  +6.43E+05  +3.60E+04  -5.284E+01  -2.719E+03  +9.188E+01  +5.531E+01  -6.933E+02  -2.798E+01  +2.995E+03
  +1.19E+04  +6.35E+05  +4.03E+04  -5.284E+01  -2.719E+03  +9.188E+01  +5.531E+01  -6.933E+02  -2.798E+01  +2.995E+03

element # = 324     type =4-n tetrahedron
 XX         YY         ZZ         SIGXX       SIGYY       SIGZZ       TAUXY       TAUYZ       TAUZX       SIGV
  +6.49E+04  +1.24E+04  +1.96E+05  +1.156E+04  +3.367E+04  +4.850E+03  +1.686E+03  -2.647E+03  -1.904E+02  +2.668E+04
  +5.26E+04  +3.74E+04  +1.96E+05  +1.156E+04  +3.367E+04  +4.850E+03  +1.686E+03  -2.647E+03  -1.904E+02  +2.668E+04
  +4.70E+04  +1.24E+04  +1.96E+05  +1.156E+04  +3.367E+04  +4.850E+03  +1.686E+03  -2.647E+03  -1.904E+02  +2.668E+04
  +4.63E+04  +2.75E+04  +1.82E+05  +1.156E+04  +3.367E+04  +4.850E+03  +1.686E+03  -2.647E+03  -1.904E+02  +2.668E+04

element # = 325     type =4-n tetrahedron
 XX         YY         ZZ         SIGXX       SIGYY       SIGZZ       TAUXY       TAUYZ       TAUZX       SIGV
  +6.57E+04  +6.62E+04  +1.90E+05  -1.690E+03  +1.665E+04  -2.117E+03  +2.590E+03  -2.537E+03  +8.903E+02  +1.965E+04
  +7.49E+04  +8.67E+04  +1.76E+05  -1.690E+03  +1.665E+04  -2.117E+03  +2.590E+03  -2.537E+03  +8.903E+02  +1.965E+04
  +7.80E+04  +6.47E+04  +1.71E+05  -1.690E+03  +1.665E+04  -2.117E+03  +2.590E+03  -2.537E+03  +8.903E+02  +1.965E+04
  +8.69E+04  +8.03E+04  +1.90E+05  -1.690E+03  +1.665E+04  -2.117E+03  +2.590E+03  -2.537E+03  +8.903E+02  +1.965E+04

element # = 326     type =4-n tetrahedron
 XX         YY         ZZ         SIGXX       SIGYY       SIGZZ       TAUXY       TAUYZ       TAUZX       SIGV
  +3.36E+04  +6.55E+04  +1.75E+05  -1.063E+02  +1.926E+04  -3.342E+02  +1.169E+03  -8.584E+02  +2.715E+02  +1.965E+04
  +1.75E+04  +5.13E+04  +1.91E+05  -1.063E+02  +1.926E+04  -3.342E+02  +1.169E+03  -8.584E+02  +2.715E+02  +1.965E+04
  +4.10E+04  +5.50E+04  +1.91E+05  -1.063E+02  +1.926E+04  -3.342E+02  +1.169E+03  -8.584E+02  +2.715E+02  +1.965E+04
  +3.47E+04  +4.51E+04  +1.77E+05  -1.063E+02  +1.926E+04  -3.342E+02  +1.169E+03  -8.584E+02  +2.715E+02  +1.965E+04

element # = 327     type =4-n tetrahedron
 XX         YY         ZZ         SIGXX       SIGYY       SIGZZ       TAUXY       TAUYZ       TAUZX       SIGV
  +4.18E+04  +9.82E+04  +1.95E+05  +2.138E+02  +2.587E+04  -1.726E+03  +7.957E+02  -2.084E+03  -1.234E+03  +2.704E+04
  +1.92E+04  +9.01E+04  +1.95E+05  +2.138E+02  +2.587E+04  -1.726E+03  +7.957E+02  -2.084E+03  -1.234E+03  +2.704E+04
  +4.27E+04  +7.25E+04  +1.95E+05  +2.138E+02  +2.587E+04  -1.726E+03  +7.957E+02  -2.084E+03  -1.234E+03  +2.704E+04
  +3.53E+04  +8.30E+04  +1.80E+05  +2.138E+02  +2.587E+04  -1.726E+03  +7.957E+02  -2.084E+03  -1.234E+03  +2.704E+04

element # = 328     type =4-n tetrahedron
 XX         YY         ZZ         SIGXX       SIGYY       SIGZZ       TAUXY       TAUYZ       TAUZX       SIGV
  +9.42E+04  +4.69E+05  +1.27E+05  -2.503E+02  +1.876E+03  -3.776E+02  +1.140E+02  -1.549E+03  +1.677E+02  +3.482E+03
  +1.07E+05  +4.95E+05  +1.38E+05  -2.503E+02  +1.876E+03  -3.776E+02  +1.140E+02  -1.549E+03  +1.677E+02  +3.482E+03
  +7.47E+04  +4.83E+05  +1.46E+05  -2.503E+02  +1.876E+03  -3.776E+02  +1.140E+02  -1.549E+03  +1.677E+02  +3.482E+03
  +7.02E+04  +4.97E+05  +1.27E+05  -2.503E+02  +1.876E+03  -3.776E+02  +1.140E+02  -1.549E+03  +1.677E+02  +3.482E+03

element # = 329     type =4-n tetrahedron
 XX         YY         ZZ         SIGXX       SIGYY       SIGZZ       TAUXY       TAUYZ       TAUZX       SIGV
  +1.29E+05  +6.51E+05  +1.45E+05  -5.953E+02  +1.202E+03  -9.818E+02  -1.231E+02  -1.362E+03  +2.409E+02  +3.139E+03
  +1.13E+05  +6.26E+05  +1.74E+05  -5.953E+02  +1.202E+03  -9.818E+02  -1.231E+02  -1.362E+03  +2.409E+02  +3.139E+03
  +1.36E+05  +6.24E+05  +1.53E+05  -5.953E+02  +1.202E+03  -9.818E+02  -1.231E+02  -1.362E+03  +2.409E+02  +3.139E+03
  +1.14E+05  +6.23E+05  +1.38E+05  -5.953E+02  +1.202E+03  -9.818E+02  -1.231E+02  -1.362E+03  +2.409E+02  +3.139E+03

element # = 330     type =4-n tetrahedron
 XX         YY         ZZ         SIGXX       SIGYY       SIGZZ       TAUXY       TAUYZ       TAUZX       SIGV
  +1.34E+04  +1.98E+05  +1.12E+05  -3.121E+02  -6.501E+01  -7.685E+02  +7.958E+01  -4.072E+03  +2.594E+02  +7.096E+03
  +3.62E+04  +1.90E+05  +1.05E+05  -3.121E+02  -6.501E+01  -7.685E+02  +7.958E+01  -4.072E+03  +2.594E+02  +7.096E+03
  +3.40E+04  +2.21E+05  +1.03E+05  -3.121E+02  -6.501E+01  -7.685E+02  +7.958E+01  -4.072E+03  +2.594E+02  +7.096E+03
  +1.34E+04  +2.00E+05  +9.33E+04  -3.121E+02  -6.501E+01  -7.685E+02  +7.958E+01  -4.072E+03  +2.594E+02  +7.096E+03

element # = 331     type =4-n tetrahedron
 XX         YY         ZZ         SIGXX       SIGYY       SIGZZ       TAUXY       TAUYZ       TAUZX       SIGV
  +9.08E+04  +2.14E+05  +1.26E+05  +8.569E+02  +5.100E+03  +7.198E+02  +5.703E+02  -2.429E+03  +4.989E+02  +6.167E+03
  +9.13E+04  +2.20E+05  +8.74E+04  +8.569E+02  +5.100E+03  +7.198E+02  +5.703E+02  -2.429E+03  +4.989E+02  +6.167E+03
  +1.14E+05  +2.27E+05  +1.18E+05  +8.569E+02  +5.100E+03  +7.198E+02  +5.703E+02  -2.429E+03  +4.989E+02  +6.167E+03
  +7.14E+04  +2.33E+05  +1.07E+05  +8.569E+02  +5.100E+03  +7.198E+02  +5.703E+02  -2.429E+03  +4.989E+02  +6.167E+03

element # = 332     type =4-n tetrahedron
 XX         YY         ZZ         SIGXX       SIGYY       SIGZZ       TAUXY       TAUYZ       TAUZX       SIGV
  +1.33E+04  +2.67E+05  +7.58E+04  +5.833E+02  -4.070E+03  +4.780E+02  -4.829E+02  -2.466E+03  +1.518E+02  +6.339E+03
  +1.33E+04  +2.49E+05  +7.27E+04  +5.833E+02  -4.070E+03  +4.780E+02  -4.829E+02  -2.466E+03  +1.518E+02  +6.339E+03
  +3.39E+04  +2.52E+05  +8.73E+04  +5.833E+02  -4.070E+03  +4.780E+02  -4.829E+02  -2.466E+03  +1.518E+02  +6.339E+03
  +3.59E+04  +2.65E+05  +6.24E+04  +5.833E+02  -4.070E+03  +4.780E+02  -4.829E+02  -2.466E+03  +1.518E+02  +6.339E+03

element # = 333     type =4-n tetrahedron
 XX         YY         ZZ         SIGXX       SIGYY       SIGZZ       TAUXY       TAUYZ       TAUZX       SIGV
  +1.64E+05  +1.96E+05  +1.93E+05  +8.979E+02  +1.988E+04  -2.376E+02  +3.883E+02  -1.486E+03  +1.095E+03  +1.984E+04
  +1.86E+05  +1.74E+05  +1.71E+05  +8.979E+02  +1.988E+04  -2.376E+02  +3.883E+02  -1.486E+03  +1.095E+03  +1.984E+04
  +1.64E+05  +1.74E+05  +1.93E+05  +8.979E+02  +1.988E+04  -2.376E+02  +3.883E+02  -1.486E+03  +1.095E+03  +1.984E+04
  +1.86E+05  +1.86E+05  +1.93E+05  +8.979E+02  +1.988E+04  -2.376E+02  +3.883E+02  -1.486E+03  +1.095E+03  +1.984E+04

element # = 334     type =4-n tetrahedron
 XX         YY         ZZ         SIGXX       SIGYY       SIGZZ       TAUXY       TAUYZ       TAUZX       SIGV
  +4.78E+04  +2.22E+05  +3.88E+04  +1.325E+02  -8.921E+03  +1.344E+03  -2.424E+02  -1.656E+03  +1.410E+03  +1.043E+04
  +7.13E+04  +2.14E+05  +4.72E+04  +1.325E+02  -8.921E+03  +1.344E+03  -2.424E+02  -1.656E+03  +1.410E+03  +1.043E+04
  +5.32E+04  +2.13E+05  +2.04E+04  +1.325E+02  -8.921E+03  +1.344E+03  -2.424E+02  -1.656E+03  +1.410E+03  +1.043E+04
  +5.06E+04  +2.02E+05  +4.12E+04  +1.325E+02  -8.921E+03  +1.344E+03  -2.424E+02  -1.656E+03  +1.410E+03  +1.043E+04

element # = 335     type =4-n tetrahedron
 XX         YY         ZZ         SIGXX       SIGYY       SIGZZ       TAUXY       TAUYZ       TAUZX       SIGV
  +6.82E+03  +2.94E+05  +6.84E+04  +1.239E+03  -3.441E+03  +4.567E+02  -2.850E+02  -1.685E+03  +5.939E+02  +5.355E+03
  +6.82E+03  +3.14E+05  +6.98E+04  +1.239E+03  -3.441E+03  +4.567E+02  -2.850E+02  -1.685E+03  +5.939E+02  +5.355E+03
  +6.82E+03  +3.06E+05  +5.14E+04  +1.239E+03  -3.441E+03  +4.567E+02  -2.850E+02  -1.685E+03  +5.939E+02  +5.355E+03
  +2.89E+04  +3.13E+05  +5.50E+04  +1.239E+03  -3.441E+03  +4.567E+02  -2.850E+02  -1.685E+03  +5.939E+02  +5.355E+03

element # = 336     type =4-n tetrahedron
 XX         YY         ZZ         SIGXX       SIGYY       SIGZZ       TAUXY       TAUYZ       TAUZX       SIGV
  +4.46E+04  +6.25E+05  +1.55E+05  +9.641E+01  +2.266E+03  -5.091E+02  -4.493E+00  -1.254E+03  -5.637E+01  +3.334E+03
  +4.72E+04  +6.45E+05  +1.53E+05  +9.641E+01  +2.266E+03  -5.091E+02  -4.493E+00  -1.254E+03  -5.637E+01  +3.334E+03
  +2.08E+04  +6.38E+05  +1.49E+05  +9.641E+01  +2.266E+03  -5.091E+02  -4.493E+00  -1.254E+03  -5.637E+01  +3.334E+03
  +3.81E+04  +6.27E+05  +1.37E+05  +9.641E+01  +2.266E+03  -5.091E+02  -4.493E+00  -1.254E+03  -5.637E+01  +3.334E+03

element # = 337     type =4-n tetrahedron
 XX         YY         ZZ         SIGXX       SIGYY       SIGZZ       TAUXY       TAUYZ       TAUZX       SIGV
  +1.84E+05  +8.68E+05  +4.51E+04  +5.599E+01  -3.636E+02  +8.747E+01  +2.135E+01  -3.740E+02  +6.695E+00  +7.820E+02
  +1.62E+05  +8.45E+05  +2.25E+04  +5.599E+01  -3.636E+02  +8.747E+01  +2.135E+01  -3.740E+02  +6.695E+00  +7.820E+02
  +1.57E+05  +8.51E+05  +5.02E+04  +5.599E+01  -3.636E+02  +8.747E+01  +2.135E+01  -3.740E+02  +6.695E+00  +7.820E+02
  +1.84E+05  +8.45E+05  +4.49E+04  +5.599E+01  -3.636E+02  +8.747E+01  +2.135E+01  -3.740E+02  +6.695E+00  +7.820E+02

element # = 338     type =4-n tetrahedron
 XX         YY         ZZ         SIGXX       SIGYY       SIGZZ       TAUXY       TAUYZ       TAUZX       SIGV
  +1.84E+05  +1.21E+05  +6.10E+04  -5.794E+02  -1.049E+04  -8.678E+02  +3.847E+02  -3.094E+03  +2.951E+02  +1.117E+04
  +1.57E+05  +1.48E+05  +6.78E+04  -5.794E+02  -1.049E+04  -8.678E+02  +3.847E+02  -3.094E+03  +2.951E+02  +1.117E+04
  +1.84E+05  +1.33E+05  +8.31E+04  -5.794E+02  -1.049E+04  -8.678E+02  +3.847E+02  -3.094E+03  +2.951E+02  +1.117E+04
  +1.59E+05  +1.11E+05  +6.60E+04  -5.794E+02  -1.049E+04  -8.678E+02  +3.847E+02  -3.094E+03  +2.951E+02  +1.117E+04

element # = 339     type =4-n tetrahedron
 XX         YY         ZZ         SIGXX       SIGYY       SIGZZ       TAUXY       TAUYZ       TAUZX       SIGV
  +2.55E+04  +7.00E+05  +1.71E+05  +3.295E+02  +2.908E+03  -2.966E+02  -1.831E+02  -5.913E+02  +1.090E+01  +3.132E+03
  +6.02E+03  +6.93E+05  +1.65E+05  +3.295E+02  +2.908E+03  -2.966E+02  -1.831E+02  -5.913E+02  +1.090E+01  +3.132E+03
  +6.02E+03  +7.04E+05  +1.88E+05  +3.295E+02  +2.908E+03  -2.966E+02  -1.831E+02  -5.913E+02  +1.090E+01  +3.132E+03
  +6.02E+03  +6.82E+05  +1.88E+05  +3.295E+02  +2.908E+03  -2.966E+02  -1.831E+02  -5.913E+02  +1.090E+01  +3.132E+03

element # = 340     type =4-n tetrahedron
 XX         YY         ZZ         SIGXX       SIGYY       SIGZZ       TAUXY       TAUYZ       TAUZX       SIGV
  +8.85E+04  +9.48E+05  +1.54E+05  +1.819E+01  +1.458E+02  -3.314E+02  +7.857E-03  -1.744E+02  +2.354E+00  +5.238E+02
  +6.51E+04  +9.46E+05  +1.35E+05  +1.819E+01  +1.458E+02  -3.314E+02  +7.857E-03  -1.744E+02  +2.354E+00  +5.238E+02
  +7.87E+04  +9.28E+05  +1.52E+05  +1.819E+01  +1.458E+02  -3.314E+02  +7.857E-03  -1.744E+02  +2.354E+00  +5.238E+02
  +9.69E+04  +9.42E+05  +1.30E+05  +1.819E+01  +1.458E+02  -3.314E+02  +7.857E-03  -1.744E+02  +2.354E+00  +5.238E+02

element # = 341     type =4-n tetrahedron
 XX         YY         ZZ         SIGXX       SIGYY       SIGZZ       TAUXY       TAUYZ       TAUZX       SIGV
  +7.34E+03  +6.18E+05  +1.81E+05  -1.380E+02  +2.247E+03  -6.947E+02  -1.484E+02  -7.091E+02  +1.590E+02  +2.996E+03
  +7.34E+03  +6.08E+05  +1.59E+05  -1.380E+02  +2.247E+03  -6.947E+02  -1.484E+02  -7.091E+02  +1.590E+02  +2.996E+03
  +3.11E+04  +6.16E+05  +1.65E+05  -1.380E+02  +2.247E+03  -6.947E+02  -1.484E+02  -7.091E+02  +1.590E+02  +2.996E+03
  +7.34E+03  +6.29E+05  +1.59E+05  -1.380E+02  +2.247E+03  -6.947E+02  -1.484E+02  -7.091E+02  +1.590E+02  +2.996E+03

element # = 342     type =4-n tetrahedron
 XX         YY         ZZ         SIGXX       SIGYY       SIGZZ       TAUXY       TAUYZ       TAUZX       SIGV
  +3.08E+04  +8.69E+05  +1.58E+05  +3.249E+00  +3.552E+02  -4.378E+02  +1.307E+01  -3.332E+02  -1.440E+01  +8.987E+02
  +1.32E+04  +8.76E+05  +1.49E+05  +3.249E+00  +3.552E+02  -4.378E+02  +1.307E+01  -3.332E+02  -1.440E+01  +8.987E+02
  +1.32E+04  +8.54E+05  +1.49E+05  +3.249E+00  +3.552E+02  -4.378E+02  +1.307E+01  -3.332E+02  -1.440E+01  +8.987E+02
  +3.85E+04  +8.72E+05  +1.40E+05  +3.249E+00  +3.552E+02  -4.378E+02  +1.307E+01  -3.332E+02  -1.440E+01  +8.987E+02

element # = 343     type =4-n tetrahedron
 XX         YY         ZZ         SIGXX       SIGYY       SIGZZ       TAUXY       TAUYZ       TAUZX       SIGV
  +1.83E+05  +8.93E+05  +5.90E+04  -1.427E+01  -1.927E+02  -2.020E+02  +3.135E+00  -2.831E+02  +7.252E+00  +5.237E+02
  +1.83E+05  +9.05E+05  +8.12E+04  -1.427E+01  -1.927E+02  -2.020E+02  +3.135E+00  -2.831E+02  +7.252E+00  +5.237E+02
  +1.55E+05  +8.77E+05  +6.42E+04  -1.427E+01  -1.927E+02  -2.020E+02  +3.135E+00  -2.831E+02  +7.252E+00  +5.237E+02
  +1.55E+05  +9.20E+05  +5.94E+04  -1.427E+01  -1.927E+02  -2.020E+02  +3.135E+00  -2.831E+02  +7.252E+00  +5.237E+02

element # = 344     type =4-n tetrahedron
 XX         YY         ZZ         SIGXX       SIGYY       SIGZZ       TAUXY       TAUYZ       TAUZX       SIGV
  +2.94E+04  +6.75E+05  +1.20E+05  +6.203E+02  +1.997E+03  -1.338E+02  -1.607E+02  -1.211E+03  +1.863E+02  +2.843E+03
  +6.94E+03  +6.79E+05  +1.38E+05  +6.203E+02  +1.997E+03  -1.338E+02  -1.607E+02  -1.211E+03  +1.863E+02  +2.843E+03
  +6.94E+03  +6.58E+05  +1.38E+05  +6.203E+02  +1.997E+03  -1.338E+02  -1.607E+02  -1.211E+03  +1.863E+02  +2.843E+03
  +6.94E+03  +6.69E+05  +1.15E+05  +6.203E+02  +1.997E+03  -1.338E+02  -1.607E+02  -1.211E+03  +1.863E+02  +2.843E+03

element # = 345     type =4-n tetrahedron
 XX         YY         ZZ         SIGXX       SIGYY       SIGZZ       TAUXY       TAUYZ       TAUZX       SIGV
  +6.27E+04  +7.67E+05  +1.54E+05  -1.174E+02  +5.010E+02  -6.304E+02  -7.903E+01  -7.479E+02  +3.485E+01  +1.632E+03
  +9.66E+04  +7.63E+05  +1.43E+05  -1.174E+02  +5.010E+02  -6.304E+02  -7.903E+01  -7.479E+02  +3.485E+01  +1.632E+03
  +6.81E+04  +7.88E+05  +1.47E+05  -1.174E+02  +5.010E+02  -6.304E+02  -7.903E+01  -7.479E+02  +3.485E+01  +1.632E+03
  +5.99E+04  +7.68E+05  +1.36E+05  -1.174E+02  +5.010E+02  -6.304E+02  -7.903E+01  -7.479E+02  +3.485E+01  +1.632E+03

element # = 346     type =4-n tetrahedron
 XX         YY         ZZ         SIGXX       SIGYY       SIGZZ       TAUXY       TAUYZ       TAUZX       SIGV
  +7.79E+03  +7.27E+05  +9.08E+04  +2.371E+02  +2.753E+02  -1.801E+00  -4.369E+01  -9.444E+02  +1.428E+02  +1.676E+03
  +7.79E+03  +7.49E+05  +9.08E+04  +2.371E+02  +2.753E+02  -1.801E+00  -4.369E+01  -9.444E+02  +1.428E+02  +1.676E+03
  +7.79E+03  +7.38E+05  +6.85E+04  +2.371E+02  +2.753E+02  -1.801E+00  -4.369E+01  -9.444E+02  +1.428E+02  +1.676E+03
  +3.30E+04  +7.36E+05  +8.33E+04  +2.371E+02  +2.753E+02  -1.801E+00  -4.369E+01  -9.444E+02  +1.428E+02  +1.676E+03

element # = 347     type =4-n tetrahedron
 XX         YY         ZZ         SIGXX       SIGYY       SIGZZ       TAUXY       TAUYZ       TAUZX       SIGV
  +1.92E+04  +7.16E+05  +1.13E+05  +1.945E+01  +5.907E+02  -2.968E+02  +4.088E+01  -9.542E+02  -7.095E+01  +1.833E+03
  +3.87E+04  +7.12E+05  +1.41E+05  +1.945E+01  +5.907E+02  -2.968E+02  +4.088E+01  -9.542E+02  -7.095E+01  +1.833E+03
  +3.94E+04  +7.37E+05  +1.24E+05  +1.945E+01  +5.907E+02  -2.968E+02  +4.088E+01  -9.542E+02  -7.095E+01  +1.833E+03
  +4.16E+04  +7.00E+05  +1.19E+05  +1.945E+01  +5.907E+02  -2.968E+02  +4.088E+01  -9.542E+02  -7.095E+01  +1.833E+03

element # = 348     type =4-n tetrahedron
 XX         YY         ZZ         SIGXX       SIGYY       SIGZZ       TAUXY       TAUYZ       TAUZX       SIGV
  +7.33E+04  +1.08E+05  +4.35E+04  -3.031E+02  -1.459E+04  -1.538E+03  -4.836E+01  -8.000E+02  -4.375E+02  +1.380E+04
  +7.96E+04  +7.30E+04  +3.73E+04  -3.031E+02  -1.459E+04  -1.538E+03  -4.836E+01  -8.000E+02  -4.375E+02  +1.380E+04
  +8.59E+04  +8.81E+04  +1.81E+04  -3.031E+02  -1.459E+04  -1.538E+03  -4.836E+01  -8.000E+02  -4.375E+02  +1.380E+04
  +5.90E+04  +8.55E+04  +3.18E+04  -3.031E+02  -1.459E+04  -1.538E+03  -4.836E+01  -8.000E+02  -4.375E+02  +1.380E+04

element # = 349     type =4-n tetrahedron
 XX         YY         ZZ         SIGXX       SIGYY       SIGZZ       TAUXY       TAUYZ       TAUZX       SIGV
  +5.73E+03  +1.01E+05  +8.92E+04  +2.159E+03  +2.836E+02  +1.086E+03  +1.332E+03  -3.228E+03  +1.575E+02  +6.270E+03
  +2.43E+04  +9.84E+04  +7.58E+04  +2.159E+03  +2.836E+02  +1.086E+03  +1.332E+03  -3.228E+03  +1.575E+02  +6.270E+03
  +5.73E+03  +1.27E+05  +8.93E+04  +2.159E+03  +2.836E+02  +1.086E+03  +1.332E+03  -3.228E+03  +1.575E+02  +6.270E+03
  +5.73E+03  +1.12E+05  +6.67E+04  +2.159E+03  +2.836E+02  +1.086E+03  +1.332E+03  -3.228E+03  +1.575E+02  +6.270E+03

element # = 350     type =4-n tetrahedron
 XX         YY         ZZ         SIGXX       SIGYY       SIGZZ       TAUXY       TAUYZ       TAUZX       SIGV
  +5.50E+03  +9.10E+04  +1.84E+04  +2.206E+03  -1.120E+04  +1.266E+03  +6.490E+02  -8.188E+02  +1.378E+03  +1.330E+04
  +5.50E+03  +7.39E+04  +4.18E+04  +2.206E+03  -1.120E+04  +1.266E+03  +6.490E+02  -8.188E+02  +1.378E+03  +1.330E+04
  +5.50E+03  +1.00E+05  +4.08E+04  +2.206E+03  -1.120E+04  +1.266E+03  +6.490E+02  -8.188E+02  +1.378E+03  +1.330E+04
  +2.33E+04  +8.49E+04  +3.21E+04  +2.206E+03  -1.120E+04  +1.266E+03  +6.490E+02  -8.188E+02  +1.378E+03  +1.330E+04

element # = 351     type =4-n tetrahedron
 XX         YY         ZZ         SIGXX       SIGYY       SIGZZ       TAUXY       TAUYZ       TAUZX       SIGV
  +2.59E+04  +1.90E+05  +3.87E+04  -5.324E+02  -1.177E+04  -2.738E+02  +6.108E+01  -1.725E+03  +1.560E+03  +1.206E+04
  +6.11E+03  +2.01E+05  +3.48E+04  -5.324E+02  -1.177E+04  -2.738E+02  +6.108E+01  -1.725E+03  +1.560E+03  +1.206E+04
  +6.11E+03  +1.80E+05  +3.81E+04  -5.324E+02  -1.177E+04  -2.738E+02  +6.108E+01  -1.725E+03  +1.560E+03  +1.206E+04
  +6.11E+03  +1.90E+05  +1.79E+04  -5.324E+02  -1.177E+04  -2.738E+02  +6.108E+01  -1.725E+03  +1.560E+03  +1.206E+04

element # = 352     type =4-n tetrahedron
 XX         YY         ZZ         SIGXX       SIGYY       SIGZZ       TAUXY       TAUYZ       TAUZX       SIGV
  +3.72E+04  +2.63E+05  +1.53E+05  +1.085E+03  +1.276E+04  +1.439E+03  +5.566E+02  -2.426E+03  -5.869E+02  +1.232E+04
  +3.69E+04  +2.42E+05  +1.49E+05  +1.085E+03  +1.276E+04  +1.439E+03  +5.566E+02  -2.426E+03  -5.869E+02  +1.232E+04
  +3.87E+04  +2.49E+05  +1.26E+05  +1.085E+03  +1.276E+04  +1.439E+03  +5.566E+02  -2.426E+03  -5.869E+02  +1.232E+04
  +1.81E+04  +2.58E+05  +1.51E+05  +1.085E+03  +1.276E+04  +1.439E+03  +5.566E+02  -2.426E+03  -5.869E+02  +1.232E+04

element # = 353     type =4-n tetrahedron
 XX         YY         ZZ         SIGXX       SIGYY       SIGZZ       TAUXY       TAUYZ       TAUZX       SIGV
  +6.43E+04  +5.42E+04  +1.66E+05  +2.678E+03  +1.989E+04  -1.038E+03  +1.465E+03  -9.864E+02  +1.193E+03  +1.969E+04
  +5.20E+04  +5.57E+04  +1.85E+05  +2.678E+03  +1.989E+04  -1.038E+03  +1.465E+03  -9.864E+02  +1.193E+03  +1.969E+04
  +4.57E+04  +4.58E+04  +1.71E+05  +2.678E+03  +1.989E+04  -1.038E+03  +1.465E+03  -9.864E+02  +1.193E+03  +1.969E+04
  +4.47E+04  +6.62E+04  +1.69E+05  +2.678E+03  +1.989E+04  -1.038E+03  +1.465E+03  -9.864E+02  +1.193E+03  +1.969E+04

element # = 354     type =4-n tetrahedron
 XX         YY         ZZ         SIGXX       SIGYY       SIGZZ       TAUXY       TAUYZ       TAUZX       SIGV
  +5.48E+04  +5.14E+05  +1.35E+05  +3.114E+02  +4.381E+03  -2.914E+02  -4.318E+02  -1.233E+03  +3.030E+01  +4.950E+03
  +7.05E+04  +5.29E+05  +1.47E+05  +3.114E+02  +4.381E+03  -2.914E+02  -4.318E+02  -1.233E+03  +3.030E+01  +4.950E+03
  +5.92E+04  +5.00E+05  +1.53E+05  +3.114E+02  +4.381E+03  -2.914E+02  -4.318E+02  -1.233E+03  +3.030E+01  +4.950E+03
  +5.02E+04  +5.21E+05  +1.56E+05  +3.114E+02  +4.381E+03  -2.914E+02  -4.318E+02  -1.233E+03  +3.030E+01  +4.950E+03

element # = 355     type =4-n tetrahedron
 XX         YY         ZZ         SIGXX       SIGYY       SIGZZ       TAUXY       TAUYZ       TAUZX       SIGV
  +4.98E+03  +9.06E+04  +1.81E+05  -1.985E+03  +1.069E+04  -1.416E+03  -1.107E+03  -7.336E+02  +2.061E+03  +1.311E+04
  +4.98E+03  +7.35E+04  +1.58E+05  -1.985E+03  +1.069E+04  -1.416E+03  -1.107E+03  -7.336E+02  +2.061E+03  +1.311E+04
  +2.11E+04  +8.35E+04  +1.65E+05  -1.985E+03  +1.069E+04  -1.416E+03  -1.107E+03  -7.336E+02  +2.061E+03  +1.311E+04
  +4.98E+03  +9.97E+04  +1.59E+05  -1.985E+03  +1.069E+04  -1.416E+03  -1.107E+03  -7.336E+02  +2.061E+03  +1.311E+04

element # = 356     type =4-n tetrahedron
 XX         YY         ZZ         SIGXX       SIGYY       SIGZZ       TAUXY       TAUYZ       TAUZX       SIGV
  +5.61E+03  +2.01E+05  +1.65E+05  +1.500E+02  +1.250E+04  -5.494E+02  -3.334E+02  -1.430E+03  +6.175E+02  +1.301E+04
  +2.38E+04  +1.88E+05  +1.67E+05  +1.500E+02  +1.250E+04  -5.494E+02  -3.334E+02  -1.430E+03  +6.175E+02  +1.301E+04
  +5.61E+03  +1.79E+05  +1.64E+05  +1.500E+02  +1.250E+04  -5.494E+02  -3.334E+02  -1.430E+03  +6.175E+02  +1.301E+04
  +5.61E+03  +1.90E+05  +1.83E+05  +1.500E+02  +1.250E+04  -5.494E+02  -3.334E+02  -1.430E+03  +6.175E+02  +1.301E+04

element # = 357     type =4-n tetrahedron
 XX         YY         ZZ         SIGXX       SIGYY       SIGZZ       TAUXY       TAUYZ       TAUZX       SIGV
  +1.92E+05  +8.72E+05  +1.86E+05  +5.523E+01  +4.396E+02  -3.865E+02  +7.210E+01  -2.177E+02  -1.201E+01  +8.191E+02
  +1.66E+05  +8.86E+05  +1.64E+05  +5.523E+01  +4.396E+02  -3.865E+02  +7.210E+01  -2.177E+02  -1.201E+01  +8.191E+02
  +1.92E+05  +8.85E+05  +1.64E+05  +5.523E+01  +4.396E+02  -3.865E+02  +7.210E+01  -2.177E+02  -1.201E+01  +8.191E+02
  +1.92E+05  +8.93E+05  +1.86E+05  +5.523E+01  +4.396E+02  -3.865E+02  +7.210E+01  -2.177E+02  -1.201E+01  +8.191E+02

element # = 358     type =4-n tetrahedron
 XX         YY         ZZ         SIGXX       SIGYY       SIGZZ       TAUXY       TAUYZ       TAUZX       SIGV
  +1.48E+05  +5.33E+05  +5.13E+04  +5.295E+02  -2.303E+03  +5.073E+02  -4.030E+01  -1.178E+03  +4.103E+02  +3.555E+03
  +1.49E+05  +5.65E+05  +4.64E+04  +5.295E+02  -2.303E+03  +5.073E+02  -4.030E+01  -1.178E+03  +4.103E+02  +3.555E+03
  +1.54E+05  +5.48E+05  +2.29E+04  +5.295E+02  -2.303E+03  +5.073E+02  -4.030E+01  -1.178E+03  +4.103E+02  +3.555E+03
  +1.76E+05  +5.48E+05  +4.53E+04  +5.295E+02  -2.303E+03  +5.073E+02  -4.030E+01  -1.178E+03  +4.103E+02  +3.555E+03

element # = 359     type =4-n tetrahedron
 XX         YY         ZZ         SIGXX       SIGYY       SIGZZ       TAUXY       TAUYZ       TAUZX       SIGV
  +1.06E+05  +9.29E+05  +1.96E+05  +1.269E+01  +2.040E+02  -4.136E+02  -7.952E+00  -9.735E+01  -2.276E+00  +5.731E+02
  +1.04E+05  +9.49E+05  +1.81E+05  +1.269E+01  +2.040E+02  -4.136E+02  -7.952E+00  -9.735E+01  -2.276E+00  +5.731E+02
  +1.27E+05  +9.43E+05  +1.96E+05  +1.269E+01  +2.040E+02  -4.136E+02  -7.952E+00  -9.735E+01  -2.276E+00  +5.731E+02
  +1.06E+05  +9.50E+05  +1.96E+05  +1.269E+01  +2.040E+02  -4.136E+02  -7.952E+00  -9.735E+01  -2.276E+00  +5.731E+02

element # = 360     type =4-n tetrahedron
 XX         YY         ZZ         SIGXX       SIGYY       SIGZZ       TAUXY       TAUYZ       TAUZX       SIGV
  +1.77E+05  +8.75E+05  +3.81E+04  -8.173E+00  -5.982E+02  -9.940E+01  +2.618E+01  -2.438E+02  -5.379E+01  +7.012E+02
  +1.55E+05  +8.52E+05  +1.56E+04  -8.173E+00  -5.982E+02  -9.940E+01  +2.618E+01  -2.438E+02  -5.379E+01  +7.012E+02
  +1.55E+05  +8.75E+05  +1.56E+04  -8.173E+00  -5.982E+02  -9.940E+01  +2.618E+01  -2.438E+02  -5.379E+01  +7.012E+02
  +1.50E+05  +8.58E+05  +4.33E+04  -8.173E+00  -5.982E+02  -9.940E+01  +2.618E+01  -2.438E+02  -5.379E+01  +7.012E+02

element # = 361     type =4-n tetrahedron
 XX         YY         ZZ         SIGXX       SIGYY       SIGZZ       TAUXY       TAUYZ       TAUZX       SIGV
  +8.81E+04  +8.22E+05  +1.93E+05  -2.320E+00  +8.454E+02  -5.125E+02  -1.036E+02  -2.579E+02  -2.729E+01  +1.283E+03
  +8.81E+04  +8.44E+05  +1.93E+05  -2.320E+00  +8.454E+02  -5.125E+02  -1.036E+02  -2.579E+02  -2.729E+01  +1.283E+03
  +6.58E+04  +8.33E+05  +1.93E+05  -2.320E+00  +8.454E+02  -5.125E+02  -1.036E+02  -2.579E+02  -2.729E+01  +1.283E+03
  +7.18E+04  +8.20E+05  +1.70E+05  -2.320E+00  +8.454E+02  -5.125E+02  -1.036E+02  -2.579E+02  -2.729E+01  +1.283E+03

element # = 362     type =4-n tetrahedron
 XX         YY         ZZ         SIGXX       SIGYY       SIGZZ       TAUXY       TAUYZ       TAUZX       SIGV
  +7.83E+04  +8.59E+04  +4.25E+03  -2.093E+03  -2.679E+04  +3.565E+03  -1.510E+02  -1.430E+03  +1.593E+03  +2.820E+04
  +5.70E+04  +7.18E+04  +4.25E+03  -2.093E+03  -2.679E+04  +3.565E+03  -1.510E+02  -1.430E+03  +1.593E+03  +2.820E+04
  +5.61E+04  +9.74E+04  +4.25E+03  -2.093E+03  -2.679E+04  +3.565E+03  -1.510E+02  -1.430E+03  +1.593E+03  +2.820E+04
  +5.14E+04  +8.34E+04  +1.80E+04  -2.093E+03  -2.679E+04  +3.565E+03  -1.510E+02  -1.430E+03  +1.593E+03  +2.820E+04

element # = 363     type =4-n tetrahedron
 XX         YY         ZZ         SIGXX       SIGYY       SIGZZ       TAUXY       TAUYZ       TAUZX       SIGV
  +1.89E+05  +3.44E+05  +5.81E+04  -1.350E+03  -7.534E+03  -1.404E+03  -4.371E+02  -2.545E+03  -1.015E+03  +7.811E+03
  +1.89E+05  +3.34E+05  +8.04E+04  -1.350E+03  -7.534E+03  -1.404E+03  -4.371E+02  -2.545E+03  -1.015E+03  +7.811E+03
  +1.89E+05  +3.23E+05  +5.81E+04  -1.350E+03  -7.534E+03  -1.404E+03  -4.371E+02  -2.545E+03  -1.015E+03  +7.811E+03
  +1.55E+05  +3.35E+05  +6.17E+04  -1.350E+03  -7.534E+03  -1.404E+03  -4.371E+02  -2.545E+03  -1.015E+03  +7.811E+03

element # = 364     type =4-n tetrahedron
 XX         YY         ZZ         SIGXX       SIGYY       SIGZZ       TAUXY       TAUYZ       TAUZX       SIGV
  +4.58E+04  +6.41E+05  +6.68E+04  -3.105E+02  -2.274E+03  -4.562E+02  +1.014E+02  -1.018E+03  -2.221E+01  +2.595E+03
  +1.49E+04  +6.47E+05  +5.83E+04  -3.105E+02  -2.274E+03  -4.562E+02  +1.014E+02  -1.018E+03  -2.221E+01  +2.595E+03
  +3.25E+04  +6.54E+05  +5.40E+04  -3.105E+02  -2.274E+03  -4.562E+02  +1.014E+02  -1.018E+03  -2.221E+01  +2.595E+03
  +1.49E+04  +6.57E+05  +8.06E+04  -3.105E+02  -2.274E+03  -4.562E+02  +1.014E+02  -1.018E+03  -2.221E+01  +2.595E+03

element # = 365     type =4-n tetrahedron
 XX         YY         ZZ         SIGXX       SIGYY       SIGZZ       TAUXY       TAUYZ       TAUZX       SIGV
  +1.92E+05  +6.84E+04  +1.43E+05  +6.806E+02  +1.155E+04  -7.363E+02  +4.765E+02  -2.098E+03  -1.141E+03  +1.239E+04
  +1.65E+05  +6.92E+04  +1.48E+05  +6.806E+02  +1.155E+04  -7.363E+02  +4.765E+02  -2.098E+03  -1.141E+03  +1.239E+04
  +1.92E+05  +8.26E+04  +1.22E+05  +6.806E+02  +1.155E+04  -7.363E+02  +4.765E+02  -2.098E+03  -1.141E+03  +1.239E+04
  +1.92E+05  +9.41E+04  +1.44E+05  +6.806E+02  +1.155E+04  -7.363E+02  +4.765E+02  -2.098E+03  -1.141E+03  +1.239E+04

element # = 366     type =4-n tetrahedron
 XX         YY         ZZ         SIGXX       SIGYY       SIGZZ       TAUXY       TAUYZ       TAUZX       SIGV
  +5.04E+04  +6.94E+05  +5.82E+04  -3.106E+02  -1.876E+03  -5.375E+02  +1.114E+02  -9.437E+02  +2.615E+02  +2.249E+03
  +7.25E+04  +6.89E+05  +7.05E+04  -3.106E+02  -1.876E+03  -5.375E+02  +1.114E+02  -9.437E+02  +2.615E+02  +2.249E+03
  +4.86E+04  +6.74E+05  +5.57E+04  -3.106E+02  -1.876E+03  -5.375E+02  +1.114E+02  -9.437E+02  +2.615E+02  +2.249E+03
  +5.36E+04  +6.83E+05  +8.74E+04  -3.106E+02  -1.876E+03  -5.375E+02  +1.114E+02  -9.437E+02  +2.615E+02  +2.249E+03

element # = 367     type =4-n tetrahedron
 XX         YY         ZZ         SIGXX       SIGYY       SIGZZ       TAUXY       TAUYZ       TAUZX       SIGV
  +1.93E+05  +6.09E+05  +1.14E+05  -8.292E+02  -1.417E+02  -7.253E+02  -3.546E+02  -1.182E+03  -2.011E+02  +2.259E+03
  +1.93E+05  +5.87E+05  +1.14E+05  -8.292E+02  -1.417E+02  -7.253E+02  -3.546E+02  -1.182E+03  -2.011E+02  +2.259E+03
  +1.72E+05  +6.07E+05  +1.38E+05  -8.292E+02  -1.417E+02  -7.253E+02  -3.546E+02  -1.182E+03  -2.011E+02  +2.259E+03
  +1.93E+05  +5.98E+05  +1.37E+05  -8.292E+02  -1.417E+02  -7.253E+02  -3.546E+02  -1.182E+03  -2.011E+02  +2.259E+03

element # = 368     type =4-n tetrahedron
 XX         YY         ZZ         SIGXX       SIGYY       SIGZZ       TAUXY       TAUYZ       TAUZX       SIGV
  +1.29E+05  +7.01E+05  +1.19E+05  +4.521E+01  +7.322E+02  -2.407E+02  -7.334E+02  -6.311E+02  -1.448E+02  +1.903E+03
  +1.26E+05  +7.38E+05  +8.90E+04  +4.521E+01  +7.322E+02  -2.407E+02  -7.334E+02  -6.311E+02  -1.448E+02  +1.903E+03
  +1.24E+05  +7.35E+05  +1.21E+05  +4.521E+01  +7.322E+02  -2.407E+02  -7.334E+02  -6.311E+02  -1.448E+02  +1.903E+03
  +1.09E+05  +7.09E+05  +9.11E+04  +4.521E+01  +7.322E+02  -2.407E+02  -7.334E+02  -6.311E+02  -1.448E+02  +1.903E+03

element # = 369     type =4-n tetrahedron
 XX         YY         ZZ         SIGXX       SIGYY       SIGZZ       TAUXY       TAUYZ       TAUZX       SIGV
  +2.83E+04  +7.40E+04  +1.80E+05  +2.115E+03  +2.597E+04  +6.688E+02  +1.044E+03  -7.358E+01  +5.734E+02  +2.469E+04
  +1.22E+04  +5.97E+04  +1.95E+05  +2.115E+03  +2.597E+04  +6.688E+02  +1.044E+03  -7.358E+01  +5.734E+02  +2.469E+04
  +1.22E+04  +8.10E+04  +1.95E+05  +2.115E+03  +2.597E+04  +6.688E+02  +1.044E+03  -7.358E+01  +5.734E+02  +2.469E+04
  +3.57E+04  +6.34E+04  +1.95E+05  +2.115E+03  +2.597E+04  +6.688E+02  +1.044E+03  -7.358E+01  +5.734E+02  +2.469E+04

element # = 370     type =4-n tetrahedron
 XX         YY         ZZ         SIGXX       SIGYY       SIGZZ       TAUXY       TAUYZ       TAUZX       SIGV
  +1.49E+05  +2.67E+05  +8.44E+04  +2.791E+03  +6.479E+03  +1.223E+03  -7.670E+02  -2.531E+03  +6.966E+02  +6.655E+03
  +1.50E+05  +2.54E+05  +1.16E+05  +2.791E+03  +6.479E+03  +1.223E+03  -7.670E+02  -2.531E+03  +6.966E+02  +6.655E+03
  +1.51E+05  +2.91E+05  +1.21E+05  +2.791E+03  +6.479E+03  +1.223E+03  -7.670E+02  -2.531E+03  +6.966E+02  +6.655E+03
  +1.76E+05  +2.78E+05  +1.03E+05  +2.791E+03  +6.479E+03  +1.223E+03  -7.670E+02  -2.531E+03  +6.966E+02  +6.655E+03

element # = 371     type =4-n tetrahedron
 XX         YY         ZZ         SIGXX       SIGYY       SIGZZ       TAUXY       TAUYZ       TAUZX       SIGV
  +1.03E+05  +8.06E+05  +1.75E+05  +3.529E+01  +7.072E+02  -5.148E+02  +5.658E+01  -3.185E+02  -6.877E+01  +1.205E+03
  +1.15E+05  +7.79E+05  +1.49E+05  +3.529E+01  +7.072E+02  -5.148E+02  +5.658E+01  -3.185E+02  -6.877E+01  +1.205E+03
  +1.15E+05  +8.12E+05  +1.44E+05  +3.529E+01  +7.072E+02  -5.148E+02  +5.658E+01  -3.185E+02  -6.877E+01  +1.205E+03
  +8.63E+04  +8.04E+05  +1.53E+05  +3.529E+01  +7.072E+02  -5.148E+02  +5.658E+01  -3.185E+02  -6.877E+01  +1.205E+03

element # = 372     type =4-n tetrahedron
 XX         YY         ZZ         SIGXX       SIGYY       SIGZZ       TAUXY       TAUYZ       TAUZX       SIGV
  +1.52E+05  +7.31E+05  +6.89E+04  -9.742E+01  -1.049E+03  -3.630E+02  -8.334E+01  -9.947E+02  -7.423E+01  +1.931E+03
  +1.83E+05  +7.01E+05  +6.04E+04  -9.742E+01  -1.049E+03  -3.630E+02  -8.334E+01  -9.947E+02  -7.423E+01  +1.931E+03
  +1.57E+05  +6.91E+05  +6.33E+04  -9.742E+01  -1.049E+03  -3.630E+02  -8.334E+01  -9.947E+02  -7.423E+01  +1.931E+03
  +1.83E+05  +7.11E+05  +8.28E+04  -9.742E+01  -1.049E+03  -3.630E+02  -8.334E+01  -9.947E+02  -7.423E+01  +1.931E+03

element # = 373     type =4-n tetrahedron
 XX         YY         ZZ         SIGXX       SIGYY       SIGZZ       TAUXY       TAUYZ       TAUZX       SIGV
  +1.33E+05  +5.55E+05  +1.66E+05  +1.119E+03  +7.471E+03  +6.850E+02  -2.286E+02  -4.275E+02  +5.999E+01  +6.634E+03
  +1.13E+05  +5.39E+05  +1.92E+05  +1.119E+03  +7.471E+03  +6.850E+02  -2.286E+02  -4.275E+02  +5.999E+01  +6.634E+03
  +1.13E+05  +5.60E+05  +1.92E+05  +1.119E+03  +7.471E+03  +6.850E+02  -2.286E+02  -4.275E+02  +5.999E+01  +6.634E+03
  +1.35E+05  +5.49E+05  +1.92E+05  +1.119E+03  +7.471E+03  +6.850E+02  -2.286E+02  -4.275E+02  +5.999E+01  +6.634E+03

element # = 374     type =4-n tetrahedron
 XX         YY         ZZ         SIGXX       SIGYY       SIGZZ       TAUXY       TAUYZ       TAUZX       SIGV
  +1.39E+05  +3.16E+05  +7.50E+04  -2.374E+03  -7.967E+03  -1.604E+03  -8.720E+02  -1.229E+03  +5.169E+02  +6.618E+03
  +1.46E+05  +2.81E+05  +7.47E+04  -2.374E+03  -7.967E+03  -1.604E+03  -8.720E+02  -1.229E+03  +5.169E+02  +6.618E+03
  +1.49E+05  +3.06E+05  +1.11E+05  -2.374E+03  -7.967E+03  -1.604E+03  -8.720E+02  -1.229E+03  +5.169E+02  +6.618E+03
  +1.73E+05  +2.93E+05  +9.37E+04  -2.374E+03  -7.967E+03  -1.604E+03  -8.720E+02  -1.229E+03  +5.169E+02  +6.618E+03

element # = 375     type =4-n tetrahedron
 XX         YY         ZZ         SIGXX       SIGYY       SIGZZ       TAUXY       TAUYZ       TAUZX       SIGV
  +3.55E+04  +1.71E+05  +1.27E+04  -1.008E+03  -1.768E+04  -6.508E+02  +2.125E+02  -1.766E+03  +4.251E+02  +1.715E+04
  +3.28E+04  +1.83E+05  +3.35E+04  -1.008E+03  -1.768E+04  -6.508E+02  +2.125E+02  -1.766E+03  +4.251E+02  +1.715E+04
  +1.30E+04  +1.73E+05  +3.28E+04  -1.008E+03  -1.768E+04  -6.508E+02  +2.125E+02  -1.766E+03  +4.251E+02  +1.715E+04
  +1.30E+04  +1.83E+05  +1.27E+04  -1.008E+03  -1.768E+04  -6.508E+02  +2.125E+02  -1.766E+03  +4.251E+02  +1.715E+04

element # = 376     type =4-n tetrahedron
 XX         YY         ZZ         SIGXX       SIGYY       SIGZZ       TAUXY       TAUYZ       TAUZX       SIGV
  +1.55E+05  +1.94E+05  +1.60E+04  -1.755E+03  -2.149E+04  +9.237E+02  -3.238E+01  -1.830E+03  +8.892E+02  +2.149E+04
  +1.78E+05  +1.72E+05  +3.85E+04  -1.755E+03  -2.149E+04  +9.237E+02  -3.238E+01  -1.830E+03  +8.892E+02  +2.149E+04
  +1.55E+05  +1.72E+05  +1.60E+04  -1.755E+03  -2.149E+04  +9.237E+02  -3.238E+01  -1.830E+03  +8.892E+02  +2.149E+04
  +1.51E+05  +1.75E+05  +4.54E+04  -1.755E+03  -2.149E+04  +9.237E+02  -3.238E+01  -1.830E+03  +8.892E+02  +2.149E+04

element # = 377     type =4-n tetrahedron
 XX         YY         ZZ         SIGXX       SIGYY       SIGZZ       TAUXY       TAUYZ       TAUZX       SIGV
  +1.75E+05  +4.11E+05  +4.59E+04  +5.327E+02  -4.343E+03  +1.309E+03  +1.003E+02  -2.284E+03  +8.081E+01  +6.623E+03
  +1.52E+05  +4.11E+05  +2.35E+04  +5.327E+02  -4.343E+03  +1.309E+03  +1.003E+02  -2.284E+03  +8.081E+01  +6.623E+03
  +1.49E+05  +4.32E+05  +4.78E+04  +5.327E+02  -4.343E+03  +1.309E+03  +1.003E+02  -2.284E+03  +8.081E+01  +6.623E+03
  +1.41E+05  +4.08E+05  +5.31E+04  +5.327E+02  -4.343E+03  +1.309E+03  +1.003E+02  -2.284E+03  +8.081E+01  +6.623E+03

element # = 378     type =4-n tetrahedron
 XX         YY         ZZ         SIGXX       SIGYY       SIGZZ       TAUXY       TAUYZ       TAUZX       SIGV
  +1.09E+05  +5.18E+05  +1.31E+05  +9.522E+01  +2.174E+03  -2.175E+02  -1.637E+02  -8.583E+02  -1.422E+02  +2.724E+03
  +9.13E+04  +5.37E+05  +1.04E+05  +9.522E+01  +2.174E+03  -2.175E+02  -1.637E+02  -8.583E+02  -1.422E+02  +2.724E+03
  +8.79E+04  +5.35E+05  +1.33E+05  +9.522E+01  +2.174E+03  -2.175E+02  -1.637E+02  -8.583E+02  -1.422E+02  +2.724E+03
  +7.22E+04  +5.20E+05  +1.21E+05  +9.522E+01  +2.174E+03  -2.175E+02  -1.637E+02  -8.583E+02  -1.422E+02  +2.724E+03

element # = 379     type =4-n tetrahedron
 XX         YY         ZZ         SIGXX       SIGYY       SIGZZ       TAUXY       TAUYZ       TAUZX       SIGV
  +7.03E+04  +7.67E+05  +1.64E+05  -9.448E+01  +6.573E+02  -6.691E+02  +2.921E+00  -5.078E+02  +8.818E+00  +1.450E+03
  +1.04E+05  +7.63E+05  +1.54E+05  -9.448E+01  +6.573E+02  -6.691E+02  +2.921E+00  -5.078E+02  +8.818E+00  +1.450E+03
  +9.20E+04  +7.68E+05  +1.80E+05  -9.448E+01  +6.573E+02  -6.691E+02  +2.921E+00  -5.078E+02  +8.818E+00  +1.450E+03
  +7.57E+04  +7.88E+05  +1.57E+05  -9.448E+01  +6.573E+02  -6.691E+02  +2.921E+00  -5.078E+02  +8.818E+00  +1.450E+03

element # = 380     type =4-n tetrahedron
 XX         YY         ZZ         SIGXX       SIGYY       SIGZZ       TAUXY       TAUYZ       TAUZX       SIGV
  +1.58E+05  +5.46E+05  +1.37E+05  +6.114E+01  +2.775E+03  -1.320E+02  +1.752E+02  -1.208E+03  +1.057E+02  +3.526E+03
  +1.83E+05  +5.30E+05  +1.18E+05  +6.114E+01  +2.775E+03  -1.320E+02  +1.752E+02  -1.208E+03  +1.057E+02  +3.526E+03
  +1.53E+05  +5.22E+05  +1.37E+05  +6.114E+01  +2.775E+03  -1.320E+02  +1.752E+02  -1.208E+03  +1.057E+02  +3.526E+03
  +1.83E+05  +5.40E+05  +1.41E+05  +6.114E+01  +2.775E+03  -1.320E+02  +1.752E+02  -1.208E+03  +1.057E+02  +3.526E+03

element # = 381     type =4-n tetrahedron
 XX         YY         ZZ         SIGXX       SIGYY       SIGZZ       TAUXY       TAUYZ       TAUZX       SIGV
  +8.57E+04  +7.16E+05  +2.18E+04  +2.585E+02  -1.326E+03  -3.664E+00  -1.427E+02  -9.014E+02  -3.623E+01  +2.160E+03
  +6.80E+04  +7.33E+05  +3.89E+04  +2.585E+02  -1.326E+03  -3.664E+00  -1.427E+02  -9.014E+02  -3.623E+01  +2.160E+03
  +8.24E+04  +7.07E+05  +5.48E+04  +2.585E+02  -1.326E+03  -3.664E+00  -1.427E+02  -9.014E+02  -3.623E+01  +2.160E+03
  +6.03E+04  +7.11E+05  +4.24E+04  +2.585E+02  -1.326E+03  -3.664E+00  -1.427E+02  -9.014E+02  -3.623E+01  +2.160E+03

element # = 382     type =4-n tetrahedron
 XX         YY         ZZ         SIGXX       SIGYY       SIGZZ       TAUXY       TAUYZ       TAUZX       SIGV
  +1.65E+05  +5.79E+05  +4.45E+04  +1.458E+02  -2.226E+03  +2.933E+02  -1.293E+02  -7.878E+02  -3.673E+02  +2.883E+03
  +1.92E+05  +5.84E+05  +4.34E+04  +1.458E+02  -2.226E+03  +2.933E+02  -1.293E+02  -7.878E+02  -3.673E+02  +2.883E+03
  +1.92E+05  +5.73E+05  +2.11E+04  +1.458E+02  -2.226E+03  +2.933E+02  -1.293E+02  -7.878E+02  -3.673E+02  +2.883E+03
  +1.92E+05  +5.63E+05  +4.34E+04  +1.458E+02  -2.226E+03  +2.933E+02  -1.293E+02  -7.878E+02  -3.673E+02  +2.883E+03

element # = 383     type =4-n tetrahedron
 XX         YY         ZZ         SIGXX       SIGYY       SIGZZ       TAUXY       TAUYZ       TAUZX       SIGV
  +6.45E+04  +5.03E+05  +6.24E+03  -1.244E+03  -8.462E+03  -1.592E+03  -1.360E+02  -3.049E+02  -1.796E+02  +7.081E+03
  +8.69E+04  +4.93E+05  +6.24E+03  -1.244E+03  -8.462E+03  -1.592E+03  -1.360E+02  -3.049E+02  -1.796E+02  +7.081E+03
  +6.68E+04  +5.15E+05  +2.64E+04  -1.244E+03  -8.462E+03  -1.592E+03  -1.360E+02  -3.049E+02  -1.796E+02  +7.081E+03
  +8.69E+04  +5.14E+05  +6.24E+03  -1.244E+03  -8.462E+03  -1.592E+03  -1.360E+02  -3.049E+02  -1.796E+02  +7.081E+03

element # = 384     type =4-n tetrahedron
 XX         YY         ZZ         SIGXX       SIGYY       SIGZZ       TAUXY       TAUYZ       TAUZX       SIGV
  +5.68E+04  +4.90E+05  +1.24E+05  -1.449E+02  +1.451E+03  -2.842E+02  -3.767E+01  -1.478E+03  +3.832E+02  +3.129E+03
  +8.08E+04  +4.62E+05  +1.24E+05  -1.449E+02  +1.451E+03  -2.842E+02  -3.767E+01  -1.478E+03  +3.832E+02  +3.129E+03
  +5.06E+04  +4.63E+05  +1.23E+05  -1.449E+02  +1.451E+03  -2.842E+02  -3.767E+01  -1.478E+03  +3.832E+02  +3.129E+03
  +6.13E+04  +4.76E+05  +1.43E+05  -1.449E+02  +1.451E+03  -2.842E+02  -3.767E+01  -1.478E+03  +3.832E+02  +3.129E+03

element # = 385     type =4-n tetrahedron
 XX         YY         ZZ         SIGXX       SIGYY       SIGZZ       TAUXY       TAUYZ       TAUZX       SIGV
  +5.34E+04  +3.46E+05  +1.00E+05  -1.761E+02  +2.201E+03  +3.954E+02  -2.100E+02  -1.338E+03  +7.077E+02  +3.409E+03
  +4.71E+04  +3.50E+05  +1.18E+05  -1.761E+02  +2.201E+03  +3.954E+02  -2.100E+02  -1.338E+03  +7.077E+02  +3.409E+03
  +7.26E+04  +3.48E+05  +1.20E+05  -1.761E+02  +2.201E+03  +3.954E+02  -2.100E+02  -1.338E+03  +7.077E+02  +3.409E+03
  +4.95E+04  +3.26E+05  +1.12E+05  -1.761E+02  +2.201E+03  +3.954E+02  -2.100E+02  -1.338E+03  +7.077E+02  +3.409E+03

element # = 386     type =4-n tetrahedron
 XX         YY         ZZ         SIGXX       SIGYY       SIGZZ       TAUXY       TAUYZ       TAUZX       SIGV
  +1.12E+04  +4.20E+05  +1.11E+05  +3.166E+01  +1.457E+03  -1.474E+03  +9.740E+01  -2.503E+03  -2.061E+01  +5.028E+03
  +1.12E+04  +4.13E+05  +1.36E+05  +3.166E+01  +1.457E+03  -1.474E+03  +9.740E+01  -2.503E+03  -2.061E+01  +5.028E+03
  +2.74E+04  +4.34E+05  +1.18E+05  +3.166E+01  +1.457E+03  -1.474E+03  +9.740E+01  -2.503E+03  -2.061E+01  +5.028E+03
  +3.15E+04  +4.14E+05  +1.11E+05  +3.166E+01  +1.457E+03  -1.474E+03  +9.740E+01  -2.503E+03  -2.061E+01  +5.028E+03

element # = 387     type =4-n tetrahedron
 XX         YY         ZZ         SIGXX       SIGYY       SIGZZ       TAUXY       TAUYZ       TAUZX       SIGV
  +7.61E+04  +6.79E+05  +7.37E+04  -2.815E+02  -1.440E+03  -5.332E+02  +1.013E+02  -7.366E+02  +1.185E+02  +1.678E+03
  +6.55E+04  +6.50E+05  +7.16E+04  -2.815E+02  -1.440E+03  -5.332E+02  +1.013E+02  -7.366E+02  +1.185E+02  +1.678E+03
  +5.22E+04  +6.63E+05  +5.88E+04  -2.815E+02  -1.440E+03  -5.332E+02  +1.013E+02  -7.366E+02  +1.185E+02  +1.678E+03
  +5.71E+04  +6.73E+05  +9.06E+04  -2.815E+02  -1.440E+03  -5.332E+02  +1.013E+02  -7.366E+02  +1.185E+02  +1.678E+03

element # = 388     type =4-n tetrahedron
 XX         YY         ZZ         SIGXX       SIGYY       SIGZZ       TAUXY       TAUYZ       TAUZX       SIGV
  +9.02E+04  +2.59E+05  +1.39E+05  -6.731E+01  +7.497E+03  -4.563E+03  +4.105E+02  -2.464E+03  +9.827E+02  +1.154E+04
  +7.11E+04  +2.42E+05  +1.19E+05  -6.731E+01  +7.497E+03  -4.563E+03  +4.105E+02  -2.464E+03  +9.827E+02  +1.154E+04
  +9.06E+04  +2.23E+05  +1.38E+05  -6.731E+01  +7.497E+03  -4.563E+03  +4.105E+02  -2.464E+03  +9.827E+02  +1.154E+04
  +1.14E+05  +2.37E+05  +1.30E+05  -6.731E+01  +7.497E+03  -4.563E+03  +4.105E+02  -2.464E+03  +9.827E+02  +1.154E+04

element # = 389     type =4-n tetrahedron
 XX         YY         ZZ         SIGXX       SIGYY       SIGZZ       TAUXY       TAUYZ       TAUZX       SIGV
  +9.30E+04  +2.33E+05  +4.96E+04  +5.853E+02  -7.274E+03  +1.694E+03  -2.997E+01  -1.708E+03  +4.364E+02  +9.003E+03
  +9.73E+04  +2.42E+05  +2.28E+04  +5.853E+02  -7.274E+03  +1.694E+03  -2.997E+01  -1.708E+03  +4.364E+02  +9.003E+03
  +1.15E+05  +2.52E+05  +4.84E+04  +5.853E+02  -7.274E+03  +1.694E+03  -2.997E+01  -1.708E+03  +4.364E+02  +9.003E+03
  +7.52E+04  +2.58E+05  +4.40E+04  +5.853E+02  -7.274E+03  +1.694E+03  -2.997E+01  -1.708E+03  +4.364E+02  +9.003E+03

element # = 390     type =4-n tetrahedron
 XX         YY         ZZ         SIGXX       SIGYY       SIGZZ       TAUXY       TAUYZ       TAUZX       SIGV
  +5.11E+03  +4.50E+04  +1.34E+05  -8.683E+01  +5.668E+03  -1.485E+03  +1.056E+02  +1.388E+03  +2.454E+03  +8.186E+03
  +5.11E+03  +3.84E+04  +1.13E+05  -8.683E+01  +5.668E+03  -1.485E+03  +1.056E+02  +1.388E+03  +2.454E+03  +8.186E+03
  +5.11E+03  +1.95E+04  +1.22E+05  -8.683E+01  +5.668E+03  -1.485E+03  +1.056E+02  +1.388E+03  +2.454E+03  +8.186E+03
  +2.16E+04  +3.81E+04  +1.25E+05  -8.683E+01  +5.668E+03  -1.485E+03  +1.056E+02  +1.388E+03  +2.454E+03  +8.186E+03

element # = 391     type =4-n tetrahedron
 XX         YY         ZZ         SIGXX       SIGYY       SIGZZ       TAUXY       TAUYZ       TAUZX       SIGV
  +3.47E+04  +2.44E+04  +1.25E+05  +3.734E+03  +8.712E+03  +3.734E+03  +8.760E+02  -3.769E+03  +0.000E+00  +8.348E+03
  +3.73E+04  +5.76E+03  +1.13E+05  +3.734E+03  +8.712E+03  +3.734E+03  +8.760E+02  -3.769E+03  +0.000E+00  +8.348E+03
  +1.81E+04  +5.76E+03  +1.22E+05  +3.734E+03  +8.712E+03  +3.734E+03  +8.760E+02  -3.769E+03  +0.000E+00  +8.348E+03
  +4.12E+04  +5.76E+03  +1.35E+05  +3.734E+03  +8.712E+03  +3.734E+03  +8.760E+02  -3.769E+03  +0.000E+00  +8.348E+03

element # = 392     type =4-n tetrahedron
 XX         YY         ZZ         SIGXX       SIGYY       SIGZZ       TAUXY       TAUYZ       TAUZX       SIGV
  +6.04E+03  +3.33E+05  +1.83E+05  +9.285E+00  +9.191E+03  -4.516E+02  -1.270E+02  -1.289E+03  +5.365E+02  +9.728E+03
  +6.04E+03  +3.23E+05  +1.66E+05  +9.285E+00  +9.191E+03  -4.516E+02  -1.270E+02  -1.289E+03  +5.365E+02  +9.728E+03
  +2.56E+04  +3.32E+05  +1.64E+05  +9.285E+00  +9.191E+03  -4.516E+02  -1.270E+02  -1.289E+03  +5.365E+02  +9.728E+03
  +6.04E+03  +3.44E+05  +1.66E+05  +9.285E+00  +9.191E+03  -4.516E+02  -1.270E+02  -1.289E+03  +5.365E+02  +9.728E+03

element # = 393     type =4-n tetrahedron
 XX         YY         ZZ         SIGXX       SIGYY       SIGZZ       TAUXY       TAUYZ       TAUZX       SIGV
  +1.05E+04  +1.88E+04  +4.61E+04  -4.030E+03  -1.615E+04  -3.762E+03  -2.848E+03  -6.717E+02  +1.028E+03  +1.338E+04
  +2.70E+04  +3.72E+04  +6.31E+04  -4.030E+03  -1.615E+04  -3.762E+03  -2.848E+03  -6.717E+02  +1.028E+03  +1.338E+04
  +1.05E+04  +4.43E+04  +5.16E+04  -4.030E+03  -1.615E+04  -3.762E+03  -2.848E+03  -6.717E+02  +1.028E+03  +1.338E+04
  +2.80E+04  +3.56E+04  +4.33E+04  -4.030E+03  -1.615E+04  -3.762E+03  -2.848E+03  -6.717E+02  +1.028E+03  +1.338E+04

element # = 394     type =4-n tetrahedron
 XX         YY         ZZ         SIGXX       SIGYY       SIGZZ       TAUXY       TAUYZ       TAUZX       SIGV
  +1.60E+05  +6.75E+05  +3.99E+04  -8.703E+01  -2.546E+03  -1.342E+01  -1.754E+02  -6.772E+02  -3.689E+01  +2.776E+03
  +1.85E+05  +6.74E+05  +1.47E+04  -8.703E+01  -2.546E+03  -1.342E+01  -1.754E+02  -6.772E+02  -3.689E+01  +2.776E+03
  +1.85E+05  +6.85E+05  +3.71E+04  -8.703E+01  -2.546E+03  -1.342E+01  -1.754E+02  -6.772E+02  -3.689E+01  +2.776E+03
  +1.63E+05  +6.85E+05  +1.47E+04  -8.703E+01  -2.546E+03  -1.342E+01  -1.754E+02  -6.772E+02  -3.689E+01  +2.776E+03

element # = 395     type =4-n tetrahedron
 XX         YY         ZZ         SIGXX       SIGYY       SIGZZ       TAUXY       TAUYZ       TAUZX       SIGV
  +1.92E+05  +5.70E+05  +1.20E+05  +3.068E+02  +2.946E+03  +4.899E+01  +1.520E+02  -1.245E+03  -3.379E+02  +3.574E+03
  +1.92E+05  +5.59E+05  +1.42E+05  +3.068E+02  +2.946E+03  +4.899E+01  +1.520E+02  -1.245E+03  -3.379E+02  +3.574E+03
  +1.67E+05  +5.65E+05  +1.39E+05  +3.068E+02  +2.946E+03  +4.899E+01  +1.520E+02  -1.245E+03  -3.379E+02  +3.574E+03
  +1.92E+05  +5.81E+05  +1.42E+05  +3.068E+02  +2.946E+03  +4.899E+01  +1.520E+02  -1.245E+03  -3.379E+02  +3.574E+03

element # = 396     type =4-n tetrahedron
 XX         YY         ZZ         SIGXX       SIGYY       SIGZZ       TAUXY       TAUYZ       TAUZX       SIGV
  +1.47E+05  +2.84E+05  +4.85E+04  +8.590E+02  -5.713E+03  +1.340E+03  +6.860E+01  -5.639E+02  +1.210E+03  +7.207E+03
  +1.74E+05  +3.06E+05  +4.53E+04  +8.590E+02  -5.713E+03  +1.340E+03  +6.860E+01  -5.639E+02  +1.210E+03  +7.207E+03
  +1.40E+05  +3.19E+05  +4.89E+04  +8.590E+02  -5.713E+03  +1.340E+03  +6.860E+01  -5.639E+02  +1.210E+03  +7.207E+03
  +1.52E+05  +3.06E+05  +2.29E+04  +8.590E+02  -5.713E+03  +1.340E+03  +6.860E+01  -5.639E+02  +1.210E+03  +7.207E+03

element # = 397     type =4-n tetrahedron
 XX         YY         ZZ         SIGXX       SIGYY       SIGZZ       TAUXY       TAUYZ       TAUZX       SIGV
  +9.29E+04  +9.29E+05  +1.96E+05  +1.121E+01  +2.034E+02  -4.139E+02  -2.801E+01  -9.497E+01  -3.110E+00  +5.735E+02
  +9.12E+04  +9.49E+05  +1.81E+05  +1.121E+01  +2.034E+02  -4.139E+02  -2.801E+01  -9.497E+01  -3.110E+00  +5.735E+02
  +9.29E+04  +9.50E+05  +1.96E+05  +1.121E+01  +2.034E+02  -4.139E+02  -2.801E+01  -9.497E+01  -3.110E+00  +5.735E+02
  +7.16E+04  +9.43E+05  +1.96E+05  +1.121E+01  +2.034E+02  -4.139E+02  -2.801E+01  -9.497E+01  -3.110E+00  +5.735E+02

element # = 398     type =4-n tetrahedron
 XX         YY         ZZ         SIGXX       SIGYY       SIGZZ       TAUXY       TAUYZ       TAUZX       SIGV
  +3.43E+04  +8.84E+05  +1.77E+05  -2.061E+01  +2.483E+02  -5.285E+02  -1.416E+01  -1.188E+02  -2.688E+01  +7.155E+02
  +3.94E+04  +8.91E+05  +1.91E+05  -2.061E+01  +2.483E+02  -5.285E+02  -1.416E+01  -1.188E+02  -2.688E+01  +7.155E+02
  +1.68E+04  +8.99E+05  +1.91E+05  -2.061E+01  +2.483E+02  -5.285E+02  -1.416E+01  -1.188E+02  -2.688E+01  +7.155E+02
  +3.10E+04  +9.05E+05  +1.74E+05  -2.061E+01  +2.483E+02  -5.285E+02  -1.416E+01  -1.188E+02  -2.688E+01  +7.155E+02

element # = 399     type =4-n tetrahedron
 XX         YY         ZZ         SIGXX       SIGYY       SIGZZ       TAUXY       TAUYZ       TAUZX       SIGV
  +1.33E+05  +8.23E+05  +4.59E+04  +1.065E+02  -4.435E+02  -9.816E+00  +9.247E+01  -4.779E+02  -2.084E+01  +9.819E+02
  +1.16E+05  +8.06E+05  +1.81E+04  +1.065E+02  -4.435E+02  -9.816E+00  +9.247E+01  -4.779E+02  -2.084E+01  +9.819E+02
  +1.31E+05  +7.82E+05  +4.90E+04  +1.065E+02  -4.435E+02  -9.816E+00  +9.247E+01  -4.779E+02  -2.084E+01  +9.819E+02
  +1.39E+05  +7.95E+05  +1.81E+04  +1.065E+02  -4.435E+02  -9.816E+00  +9.247E+01  -4.779E+02  -2.084E+01  +9.819E+02

element # = 400     type =4-n tetrahedron
 XX         YY         ZZ         SIGXX       SIGYY       SIGZZ       TAUXY       TAUYZ       TAUZX       SIGV
  +3.23E+04  +5.24E+05  +4.03E+04  +2.214E+02  -3.398E+03  +3.224E+02  +1.555E+02  -8.778E+02  +2.817E+02  +4.012E+03
  +7.62E+03  +5.24E+05  +2.01E+04  +2.214E+02  -3.398E+03  +3.224E+02  +1.555E+02  -8.778E+02  +2.817E+02  +4.012E+03
  +7.62E+03  +5.34E+05  +4.26E+04  +2.214E+02  -3.398E+03  +3.224E+02  +1.555E+02  -8.778E+02  +2.817E+02  +4.012E+03
  +7.62E+03  +5.12E+05  +4.26E+04  +2.214E+02  -3.398E+03  +3.224E+02  +1.555E+02  -8.778E+02  +2.817E+02  +4.012E+03

element # = 401     type =4-n tetrahedron
 XX         YY         ZZ         SIGXX       SIGYY       SIGZZ       TAUXY       TAUYZ       TAUZX       SIGV
  +1.93E+05  +7.39E+05  +1.71E+05  +2.255E+02  +2.107E+03  -4.240E+02  +4.553E+01  -5.055E+02  -3.002E+01  +2.441E+03
  +1.71E+05  +7.39E+05  +1.93E+05  +2.255E+02  +2.107E+03  -4.240E+02  +4.553E+01  -5.055E+02  -3.002E+01  +2.441E+03
  +1.93E+05  +7.49E+05  +1.93E+05  +2.255E+02  +2.107E+03  -4.240E+02  +4.553E+01  -5.055E+02  -3.002E+01  +2.441E+03
  +1.93E+05  +7.28E+05  +1.93E+05  +2.255E+02  +2.107E+03  -4.240E+02  +4.553E+01  -5.055E+02  -3.002E+01  +2.441E+03

element # = 402     type =4-n tetrahedron
 XX         YY         ZZ         SIGXX       SIGYY       SIGZZ       TAUXY       TAUYZ       TAUZX       SIGV
  +6.81E+04  +5.41E+05  +1.45E+05  -6.624E+00  +2.442E+03  +4.550E+01  -9.585E+01  -1.730E+03  +5.773E+02  +3.984E+03
  +5.24E+04  +5.26E+05  +1.33E+05  -6.624E+00  +2.442E+03  +4.550E+01  -9.585E+01  -1.730E+03  +5.773E+02  +3.984E+03
  +4.93E+04  +5.52E+05  +1.45E+05  -6.624E+00  +2.442E+03  +4.550E+01  -9.585E+01  -1.730E+03  +5.773E+02  +3.984E+03
  +4.79E+04  +5.33E+05  +1.54E+05  -6.624E+00  +2.442E+03  +4.550E+01  -9.585E+01  -1.730E+03  +5.773E+02  +3.984E+03

element # = 403     type =4-n tetrahedron
 XX         YY         ZZ         SIGXX       SIGYY       SIGZZ       TAUXY       TAUYZ       TAUZX       SIGV
  +1.40E+05  +7.72E+05  +1.92E+05  -1.500E+02  +1.672E+03  -4.726E+02  +1.204E+02  -3.891E+02  -9.378E+01  +2.130E+03
  +1.40E+05  +7.51E+05  +1.92E+05  -1.500E+02  +1.672E+03  -4.726E+02  +1.204E+02  -3.891E+02  -9.378E+01  +2.130E+03
  +1.30E+05  +7.57E+05  +1.66E+05  -1.500E+02  +1.672E+03  -4.726E+02  +1.204E+02  -3.891E+02  -9.378E+01  +2.130E+03
  +1.18E+05  +7.62E+05  +1.92E+05  -1.500E+02  +1.672E+03  -4.726E+02  +1.204E+02  -3.891E+02  -9.378E+01  +2.130E+03

element # = 404     type =4-n tetrahedron
 XX         YY         ZZ         SIGXX       SIGYY       SIGZZ       TAUXY       TAUYZ       TAUZX       SIGV
  +3.53E+04  +3.50E+05  +1.89E+05  -1.363E+02  +1.069E+04  -7.482E+02  +8.291E+00  -1.321E+03  +6.603E+01  +1.137E+04
  +1.29E+04  +3.40E+05  +1.89E+05  -1.363E+02  +1.069E+04  -7.482E+02  +8.291E+00  -1.321E+03  +6.603E+01  +1.137E+04
  +3.25E+04  +3.38E+05  +1.70E+05  -1.363E+02  +1.069E+04  -7.482E+02  +8.291E+00  -1.321E+03  +6.603E+01  +1.137E+04
  +1.29E+04  +3.50E+05  +1.72E+05  -1.363E+02  +1.069E+04  -7.482E+02  +8.291E+00  -1.321E+03  +6.603E+01  +1.137E+04

element # = 405     type =4-n tetrahedron
 XX         YY         ZZ         SIGXX       SIGYY       SIGZZ       TAUXY       TAUYZ       TAUZX       SIGV
  +3.64E+04  +7.45E+05  +1.88E+05  -1.551E+01  +1.470E+03  -4.741E+02  -1.055E+02  -4.005E+02  -2.586E+00  +1.901E+03
  +1.40E+04  +7.45E+05  +1.66E+05  -1.551E+01  +1.470E+03  -4.741E+02  -1.055E+02  -4.005E+02  -2.586E+00  +1.901E+03
  +3.70E+04  +7.55E+05  +1.73E+05  -1.551E+01  +1.470E+03  -4.741E+02  -1.055E+02  -4.005E+02  -2.586E+00  +1.901E+03
  +1.40E+04  +7.55E+05  +1.88E+05  -1.551E+01  +1.470E+03  -4.741E+02  -1.055E+02  -4.005E+02  -2.586E+00  +1.901E+03

element # = 406     type =4-n tetrahedron
 XX         YY         ZZ         SIGXX       SIGYY       SIGZZ       TAUXY       TAUYZ       TAUZX       SIGV
  +1.86E+05  +3.67E+05  +2.93E+04  -1.482E+03  -1.254E+04  -1.818E+03  -4.606E+02  -1.576E+03  -1.358E+02  +1.126E+04
  +1.64E+05  +3.88E+05  +6.91E+03  -1.482E+03  -1.254E+04  -1.818E+03  -4.606E+02  -1.576E+03  -1.358E+02  +1.126E+04
  +1.64E+05  +3.67E+05  +6.91E+03  -1.482E+03  -1.254E+04  -1.818E+03  -4.606E+02  -1.576E+03  -1.358E+02  +1.126E+04
  +1.86E+05  +3.78E+05  +6.91E+03  -1.482E+03  -1.254E+04  -1.818E+03  -4.606E+02  -1.576E+03  -1.358E+02  +1.126E+04

element # = 407     type =4-n tetrahedron
 XX         YY         ZZ         SIGXX       SIGYY       SIGZZ       TAUXY       TAUYZ       TAUZX       SIGV
  +7.83E+04  +2.06E+05  +1.23E+05  -5.803E+02  -2.167E+02  -1.285E+03  -3.862E+02  -2.663E+03  +5.995E+02  +4.866E+03
  +7.87E+04  +2.12E+05  +8.43E+04  -5.803E+02  -2.167E+02  -1.285E+03  -3.862E+02  -2.663E+03  +5.995E+02  +4.866E+03
  +5.89E+04  +2.25E+05  +1.04E+05  -5.803E+02  -2.167E+02  -1.285E+03  -3.862E+02  -2.663E+03  +5.995E+02  +4.866E+03
  +6.11E+04  +1.93E+05  +1.05E+05  -5.803E+02  -2.167E+02  -1.285E+03  -3.862E+02  -2.663E+03  +5.995E+02  +4.866E+03

element # = 408     type =4-n tetrahedron
 XX         YY         ZZ         SIGXX       SIGYY       SIGZZ       TAUXY       TAUYZ       TAUZX       SIGV
  +1.64E+05  +5.66E+03  +6.89E+04  -6.568E+02  -1.533E+03  -6.568E+02  -7.942E+01  -3.377E+03  -2.345E-13  +5.917E+03
  +1.87E+05  +5.66E+03  +8.16E+04  -6.568E+02  -1.533E+03  -6.568E+02  -7.942E+01  -3.377E+03  -2.345E-13  +5.917E+03
  +1.68E+05  +5.66E+03  +9.06E+04  -6.568E+02  -1.533E+03  -6.568E+02  -7.942E+01  -3.377E+03  -2.345E-13  +5.917E+03
  +1.87E+05  +2.40E+04  +9.06E+04  -6.568E+02  -1.533E+03  -6.568E+02  -7.942E+01  -3.377E+03  -2.345E-13  +5.917E+03

element # = 409     type =4-n tetrahedron
 XX         YY         ZZ         SIGXX       SIGYY       SIGZZ       TAUXY       TAUYZ       TAUZX       SIGV
  +1.77E+04  +2.08E+05  +7.38E+04  -1.718E+03  -9.436E+03  -1.608E+03  +1.692E+03  -1.431E+03  -3.987E+02  +8.698E+03
  +3.48E+04  +2.23E+05  +5.59E+04  -1.718E+03  -9.436E+03  -1.608E+03  +1.692E+03  -1.431E+03  -3.987E+02  +8.698E+03
  +3.75E+04  +2.04E+05  +5.84E+04  -1.718E+03  -9.436E+03  -1.608E+03  +1.692E+03  -1.431E+03  -3.987E+02  +8.698E+03
  +3.83E+04  +2.29E+05  +8.37E+04  -1.718E+03  -9.436E+03  -1.608E+03  +1.692E+03  -1.431E+03  -3.987E+02  +8.698E+03

element # = 410     type =4-n tetrahedron
 XX         YY         ZZ         SIGXX       SIGYY       SIGZZ       TAUXY       TAUYZ       TAUZX       SIGV
  +8.66E+04  +8.73E+05  +2.33E+04  +7.065E+01  -1.520E+02  -2.080E+01  -2.263E+01  -2.946E+02  -2.363E+01  +5.488E+02
  +7.74E+04  +8.76E+05  +5.89E+04  +7.065E+01  -1.520E+02  -2.080E+01  -2.263E+01  -2.946E+02  -2.363E+01  +5.488E+02
  +6.01E+04  +8.79E+05  +4.21E+04  +7.065E+01  -1.520E+02  -2.080E+01  -2.263E+01  -2.946E+02  -2.363E+01  +5.488E+02
  +7.89E+04  +9.03E+05  +4.44E+04  +7.065E+01  -1.520E+02  -2.080E+01  -2.263E+01  -2.946E+02  -2.363E+01  +5.488E+02

element # = 411     type =4-n tetrahedron
 XX         YY         ZZ         SIGXX       SIGYY       SIGZZ       TAUXY       TAUYZ       TAUZX       SIGV
  +1.76E+05  +3.69E+05  +3.84E+04  -2.625E+03  -1.288E+04  -1.796E+03  -1.107E+03  -9.291E+02  +8.860E+01  +1.098E+04
  +1.54E+05  +3.91E+05  +1.60E+04  -2.625E+03  -1.288E+04  -1.796E+03  -1.107E+03  -9.291E+02  +8.860E+01  +1.098E+04
  +1.43E+05  +3.88E+05  +4.56E+04  -2.625E+03  -1.288E+04  -1.796E+03  -1.107E+03  -9.291E+02  +8.860E+01  +1.098E+04
  +1.54E+05  +3.69E+05  +1.60E+04  -2.625E+03  -1.288E+04  -1.796E+03  -1.107E+03  -9.291E+02  +8.860E+01  +1.098E+04

element # = 412     type =4-n tetrahedron
 XX         YY         ZZ         SIGXX       SIGYY       SIGZZ       TAUXY       TAUYZ       TAUZX       SIGV
  +1.06E+05  +3.46E+05  +1.90E+05  +1.261E+03  +1.416E+04  +4.165E+02  -1.807E+02  -1.387E+03  +7.304E+02  +1.361E+04
  +1.06E+05  +3.67E+05  +1.90E+05  +1.261E+03  +1.416E+04  +4.165E+02  -1.807E+02  -1.387E+03  +7.304E+02  +1.361E+04
  +1.03E+05  +3.55E+05  +1.59E+05  +1.261E+03  +1.416E+04  +4.165E+02  -1.807E+02  -1.387E+03  +7.304E+02  +1.361E+04
  +1.28E+05  +3.57E+05  +1.90E+05  +1.261E+03  +1.416E+04  +4.165E+02  -1.807E+02  -1.387E+03  +7.304E+02  +1.361E+04

element # = 413     type =4-n tetrahedron
 XX         YY         ZZ         SIGXX       SIGYY       SIGZZ       TAUXY       TAUYZ       TAUZX       SIGV
  +4.66E+04  +2.20E+04  +2.69E+04  -9.266E+03  -2.162E+04  -9.266E+03  -1.955E+03  -4.300E+03  +0.000E+00  +1.482E+04
  +4.70E+04  +5.20E+03  +1.18E+04  -9.266E+03  -2.162E+04  -9.266E+03  -1.955E+03  -4.300E+03  +0.000E+00  +1.482E+04
  +5.22E+04  +5.20E+03  +3.49E+04  -9.266E+03  -2.162E+04  -9.266E+03  -1.955E+03  -4.300E+03  +0.000E+00  +1.482E+04
  +6.49E+04  +5.20E+03  +1.18E+04  -9.266E+03  -2.162E+04  -9.266E+03  -1.955E+03  -4.300E+03  +0.000E+00  +1.482E+04

element # = 414     type =4-n tetrahedron
 XX         YY         ZZ         SIGXX       SIGYY       SIGZZ       TAUXY       TAUYZ       TAUZX       SIGV
  +1.24E+05  +5.55E+05  +1.59E+05  +1.645E+03  +7.530E+03  +3.537E+02  -3.561E+02  -5.250E+02  -1.591E+01  +6.716E+03
  +1.04E+05  +5.38E+05  +1.85E+05  +1.645E+03  +7.530E+03  +3.537E+02  -3.561E+02  -5.250E+02  -1.591E+01  +6.716E+03
  +9.73E+04  +5.48E+05  +1.61E+05  +1.645E+03  +7.530E+03  +3.537E+02  -3.561E+02  -5.250E+02  -1.591E+01  +6.716E+03
  +1.04E+05  +5.60E+05  +1.85E+05  +1.645E+03  +7.530E+03  +3.537E+02  -3.561E+02  -5.250E+02  -1.591E+01  +6.716E+03

element # = 415     type =4-n tetrahedron
 XX         YY         ZZ         SIGXX       SIGYY       SIGZZ       TAUXY       TAUYZ       TAUZX       SIGV
  +6.06E+04  +9.02E+05  +1.20E+05  +6.144E+01  +1.364E+02  -1.845E+02  -1.759E+01  -2.896E+02  +1.268E+01  +5.810E+02
  +5.50E+04  +9.35E+05  +1.19E+05  +6.144E+01  +1.364E+02  -1.845E+02  -1.759E+01  -2.896E+02  +1.268E+01  +5.810E+02
  +5.35E+04  +9.17E+05  +9.84E+04  +6.144E+01  +1.364E+02  -1.845E+02  -1.759E+01  -2.896E+02  +1.268E+01  +5.810E+02
  +8.68E+04  +9.31E+05  +1.14E+05  +6.144E+01  +1.364E+02  -1.845E+02  -1.759E+01  -2.896E+02  +1.268E+01  +5.810E+02

element # = 416     type =4-n tetrahedron
 XX         YY         ZZ         SIGXX       SIGYY       SIGZZ       TAUXY       TAUYZ       TAUZX       SIGV
  +7.18E+04  +8.00E+05  +1.70E+05  +1.095E+02  +1.396E+03  -3.111E+02  -1.672E+02  -1.922E+02  -2.842E-01  +1.602E+03
  +6.58E+04  +7.90E+05  +1.93E+05  +1.095E+02  +1.396E+03  -3.111E+02  -1.672E+02  -1.922E+02  -2.842E-01  +1.602E+03
  +8.81E+04  +8.01E+05  +1.93E+05  +1.095E+02  +1.396E+03  -3.111E+02  -1.672E+02  -1.922E+02  -2.842E-01  +1.602E+03
  +8.81E+04  +7.80E+05  +1.93E+05  +1.095E+02  +1.396E+03  -3.111E+02  -1.672E+02  -1.922E+02  -2.842E-01  +1.602E+03

element # = 417     type =4-n tetrahedron
 XX         YY         ZZ         SIGXX       SIGYY       SIGZZ       TAUXY       TAUYZ       TAUZX       SIGV
  +7.14E+03  +8.22E+05  +1.21E+04  -4.200E+01  -8.429E+02  -1.450E+02  +8.055E+01  -2.991E+02  +1.624E+01  +9.263E+02
  +7.14E+03  +8.34E+05  +3.46E+04  -4.200E+01  -8.429E+02  -1.450E+02  +8.055E+01  -2.991E+02  +1.624E+01  +9.263E+02
  +7.14E+03  +8.43E+05  +1.21E+04  -4.200E+01  -8.429E+02  -1.450E+02  +8.055E+01  -2.991E+02  +1.624E+01  +9.263E+02
  +3.02E+04  +8.30E+05  +2.88E+04  -4.200E+01  -8.429E+02  -1.450E+02  +8.055E+01  -2.991E+02  +1.624E+01  +9.263E+02

element # = 418     type =4-n tetrahedron
 XX         YY         ZZ         SIGXX       SIGYY       SIGZZ       TAUXY       TAUYZ       TAUZX       SIGV
  +1.81E+05  +9.60E+05  +1.15E+05  +2.605E+01  +1.215E+02  -2.659E+02  +9.579E+00  -1.359E+02  +5.608E+00  +4.219E+02
  +1.58E+05  +9.79E+05  +1.37E+05  +2.605E+01  +1.215E+02  -2.659E+02  +9.579E+00  -1.359E+02  +5.608E+00  +4.219E+02
  +1.81E+05  +9.54E+05  +1.37E+05  +2.605E+01  +1.215E+02  -2.659E+02  +9.579E+00  -1.359E+02  +5.608E+00  +4.219E+02
  +1.43E+05  +9.53E+05  +1.22E+05  +2.605E+01  +1.215E+02  -2.659E+02  +9.579E+00  -1.359E+02  +5.608E+00  +4.219E+02

element # = 419     type =4-n tetrahedron
 XX         YY         ZZ         SIGXX       SIGYY       SIGZZ       TAUXY       TAUYZ       TAUZX       SIGV
  +3.26E+04  +9.55E+05  +2.52E+04  +2.907E+01  -6.281E+01  +1.880E+01  -4.820E+00  -6.843E+01  -1.061E+01  +1.485E+02
  +3.16E+04  +9.36E+05  +2.55E+04  +2.907E+01  -6.281E+01  +1.880E+01  -4.820E+00  -6.843E+01  -1.061E+01  +1.485E+02
  +4.02E+04  +9.45E+05  +9.67E+03  +2.907E+01  -6.281E+01  +1.880E+01  -4.820E+00  -6.843E+01  -1.061E+01  +1.485E+02
  +1.67E+04  +9.49E+05  +9.67E+03  +2.907E+01  -6.281E+01  +1.880E+01  -4.820E+00  -6.843E+01  -1.061E+01  +1.485E+02

element # = 420     type =4-n tetrahedron
 XX         YY         ZZ         SIGXX       SIGYY       SIGZZ       TAUXY       TAUYZ       TAUZX       SIGV
  +6.08E+04  +7.28E+05  +1.87E+05  +6.573E+01  +2.503E+03  -3.870E+02  -2.992E+01  -5.633E+02  -1.187E+02  +2.872E+03
  +7.59E+04  +7.19E+05  +1.64E+05  +6.573E+01  +2.503E+03  -3.870E+02  -2.992E+01  -5.633E+02  -1.187E+02  +2.872E+03
  +5.78E+04  +7.14E+05  +1.70E+05  +6.573E+01  +2.503E+03  -3.870E+02  -2.992E+01  -5.633E+02  -1.187E+02  +2.872E+03
  +8.31E+04  +7.18E+05  +1.87E+05  +6.573E+01  +2.503E+03  -3.870E+02  -2.992E+01  -5.633E+02  -1.187E+02  +2.872E+03

element # = 421     type =4-n tetrahedron
 XX         YY         ZZ         SIGXX       SIGYY       SIGZZ       TAUXY       TAUYZ       TAUZX       SIGV
  +2.46E+04  +8.30E+05  +9.98E+04  -6.605E+01  -1.021E+02  -4.450E+02  -4.039E+00  -6.179E+02  +7.321E+00  +1.130E+03
  +5.81E+03  +8.24E+05  +1.05E+05  -6.605E+01  -1.021E+02  -4.450E+02  -4.039E+00  -6.179E+02  +7.321E+00  +1.130E+03
  +5.81E+03  +8.46E+05  +1.05E+05  -6.605E+01  -1.021E+02  -4.450E+02  -4.039E+00  -6.179E+02  +7.321E+00  +1.130E+03
  +5.81E+03  +8.35E+05  +1.27E+05  -6.605E+01  -1.021E+02  -4.450E+02  -4.039E+00  -6.179E+02  +7.321E+00  +1.130E+03

element # = 422     type =4-n tetrahedron
 XX         YY         ZZ         SIGXX       SIGYY       SIGZZ       TAUXY       TAUYZ       TAUZX       SIGV
  +1.53E+05  +8.90E+05  +2.26E+04  +8.471E+01  -7.708E+01  +1.659E+01  +1.114E+01  -2.060E+02  +1.024E+01  +3.844E+02
  +1.76E+05  +8.90E+05  +4.52E+04  +8.471E+01  -7.708E+01  +1.659E+01  +1.114E+01  -2.060E+02  +1.024E+01  +3.844E+02
  +1.48E+05  +8.73E+05  +5.04E+04  +8.471E+01  -7.708E+01  +1.659E+01  +1.114E+01  -2.060E+02  +1.024E+01  +3.844E+02
  +1.48E+05  +9.17E+05  +4.56E+04  +8.471E+01  -7.708E+01  +1.659E+01  +1.114E+01  -2.060E+02  +1.024E+01  +3.844E+02

element # = 423     type =4-n tetrahedron
 XX         YY         ZZ         SIGXX       SIGYY       SIGZZ       TAUXY       TAUYZ       TAUZX       SIGV
  +8.76E+04  +9.42E+05  +1.76E+05  -6.038E+01  +1.232E+02  -5.144E+02  -4.539E+01  -1.256E+02  -2.694E+01  +6.155E+02
  +8.93E+04  +9.23E+05  +1.90E+05  -6.038E+01  +1.232E+02  -5.144E+02  -4.539E+01  -1.256E+02  -2.694E+01  +6.155E+02
  +7.78E+04  +9.23E+05  +1.74E+05  -6.038E+01  +1.232E+02  -5.144E+02  -4.539E+01  -1.256E+02  -2.694E+01  +6.155E+02
  +6.81E+04  +9.37E+05  +1.90E+05  -6.038E+01  +1.232E+02  -5.144E+02  -4.539E+01  -1.256E+02  -2.694E+01  +6.155E+02

element # = 424     type =4-n tetrahedron
 XX         YY         ZZ         SIGXX       SIGYY       SIGZZ       TAUXY       TAUYZ       TAUZX       SIGV
  +1.54E+05  +9.29E+05  +1.41E+04  -3.218E+00  -2.679E+02  -8.533E+01  -3.798E+01  -1.495E+02  +1.731E+01  +3.569E+02
  +1.77E+05  +9.03E+05  +3.66E+04  -3.218E+00  -2.679E+02  -8.533E+01  -3.798E+01  -1.495E+02  +1.731E+01  +3.569E+02
  +1.55E+05  +9.03E+05  +1.41E+04  -3.218E+00  -2.679E+02  -8.533E+01  -3.798E+01  -1.495E+02  +1.731E+01  +3.569E+02
  +1.49E+05  +9.30E+05  +3.70E+04  -3.218E+00  -2.679E+02  -8.533E+01  -3.798E+01  -1.495E+02  +1.731E+01  +3.569E+02

element # = 425     type =4-n tetrahedron
 XX         YY         ZZ         SIGXX       SIGYY       SIGZZ       TAUXY       TAUYZ       TAUZX       SIGV
  +9.80E+04  +2.22E+05  +1.52E+05  +1.642E+03  +9.451E+03  +3.034E+02  +6.783E+02  -1.719E+03  +1.115E+03  +9.338E+03
  +1.03E+05  +2.38E+05  +1.75E+05  +1.642E+03  +9.451E+03  +3.034E+02  +6.783E+02  -1.719E+03  +1.115E+03  +9.338E+03
  +9.77E+04  +2.58E+05  +1.52E+05  +1.642E+03  +9.451E+03  +3.034E+02  +6.783E+02  -1.719E+03  +1.115E+03  +9.338E+03
  +1.21E+05  +2.35E+05  +1.44E+05  +1.642E+03  +9.451E+03  +3.034E+02  +6.783E+02  -1.719E+03  +1.115E+03  +9.338E+03

element # = 426     type =4-n tetrahedron
 XX         YY         ZZ         SIGXX       SIGYY       SIGZZ       TAUXY       TAUYZ       TAUZX       SIGV
  +3.92E+04  +2.46E+05  +8.23E+04  -2.007E+03  -1.112E+04  -1.474E+03  +4.714E+02  -2.708E+03  -2.608E+02  +1.054E+04
  +3.57E+04  +2.40E+05  +5.46E+04  -2.007E+03  -1.112E+04  -1.474E+03  +4.714E+02  -2.708E+03  -2.608E+02  +1.054E+04
  +4.12E+04  +2.58E+05  +5.74E+04  -2.007E+03  -1.112E+04  -1.474E+03  +4.714E+02  -2.708E+03  -2.608E+02  +1.054E+04
  +1.86E+04  +2.43E+05  +6.77E+04  -2.007E+03  -1.112E+04  -1.474E+03  +4.714E+02  -2.708E+03  -2.608E+02  +1.054E+04

element # = 427     type =4-n tetrahedron
 XX         YY         ZZ         SIGXX       SIGYY       SIGZZ       TAUXY       TAUYZ       TAUZX       SIGV
  +2.99E+04  +1.72E+05  +1.15E+05  +8.079E+02  +4.173E+03  -5.510E+02  -6.464E+02  -3.692E+03  +1.492E+03  +8.159E+03
  +7.05E+03  +1.68E+05  +1.37E+05  +8.079E+02  +4.173E+03  -5.510E+02  -6.464E+02  -3.692E+03  +1.492E+03  +8.159E+03
  +7.05E+03  +1.60E+05  +1.12E+05  +8.079E+02  +4.173E+03  -5.510E+02  -6.464E+02  -3.692E+03  +1.492E+03  +8.159E+03
  +7.05E+03  +1.80E+05  +1.22E+05  +8.079E+02  +4.173E+03  -5.510E+02  -6.464E+02  -3.692E+03  +1.492E+03  +8.159E+03

element # = 428     type =4-n tetrahedron
 XX         YY         ZZ         SIGXX       SIGYY       SIGZZ       TAUXY       TAUYZ       TAUZX       SIGV
  +5.81E+03  +2.90E+05  +8.82E+04  -2.034E+03  -4.504E+03  -7.318E+02  +6.090E+02  -3.252E+03  +7.767E+02  +6.757E+03
  +5.81E+03  +2.96E+05  +1.07E+05  -2.034E+03  -4.504E+03  -7.318E+02  +6.090E+02  -3.252E+03  +7.767E+02  +6.757E+03
  +5.81E+03  +3.10E+05  +8.96E+04  -2.034E+03  -4.504E+03  -7.318E+02  +6.090E+02  -3.252E+03  +7.767E+02  +6.757E+03
  +2.46E+04  +3.03E+05  +1.03E+05  -2.034E+03  -4.504E+03  -7.318E+02  +6.090E+02  -3.252E+03  +7.767E+02  +6.757E+03

element # = 429     type =4-n tetrahedron
 XX         YY         ZZ         SIGXX       SIGYY       SIGZZ       TAUXY       TAUYZ       TAUZX       SIGV
  +9.11E+04  +9.94E+05  +5.91E+03  +1.387E+00  -6.224E+01  -5.877E+01  +1.613E+01  -3.768E+01  +6.691E+00  +9.494E+01
  +1.09E+05  +9.94E+05  +5.91E+03  +1.387E+00  -6.224E+01  -5.877E+01  +1.613E+01  -3.768E+01  +6.691E+00  +9.494E+01
  +1.00E+05  +9.76E+05  +5.91E+03  +1.387E+00  -6.224E+01  -5.877E+01  +1.613E+01  -3.768E+01  +6.691E+00  +9.494E+01
  +1.00E+05  +9.94E+05  +2.50E+04  +1.387E+00  -6.224E+01  -5.877E+01  +1.613E+01  -3.768E+01  +6.691E+00  +9.494E+01

element # = 430     type =4-n tetrahedron
 XX         YY         ZZ         SIGXX       SIGYY       SIGZZ       TAUXY       TAUYZ       TAUZX       SIGV
  +1.38E+05  +7.72E+05  +1.24E+05  +1.789E+02  +6.131E+02  -2.643E+02  -1.197E+02  -8.844E+02  +3.351E+01  +1.723E+03
  +1.70E+05  +7.99E+05  +1.06E+05  +1.789E+02  +6.131E+02  -2.643E+02  -1.197E+02  -8.844E+02  +3.351E+01  +1.723E+03
  +1.38E+05  +8.05E+05  +1.19E+05  +1.789E+02  +6.131E+02  -2.643E+02  -1.197E+02  -8.844E+02  +3.351E+01  +1.723E+03
  +1.40E+05  +7.75E+05  +9.18E+04  +1.789E+02  +6.131E+02  -2.643E+02  -1.197E+02  -8.844E+02  +3.351E+01  +1.723E+03

element # = 431     type =4-n tetrahedron
 XX         YY         ZZ         SIGXX       SIGYY       SIGZZ       TAUXY       TAUYZ       TAUZX       SIGV
  +1.30E+04  +4.60E+05  +1.95E+05  +3.000E+02  +8.928E+03  +1.907E+02  -3.416E+02  -9.786E+02  +6.996E+01  +8.868E+03
  +3.27E+04  +4.42E+05  +1.78E+05  +3.000E+02  +8.928E+03  +1.907E+02  -3.416E+02  -9.786E+02  +6.996E+01  +8.868E+03
  +1.30E+04  +4.39E+05  +1.95E+05  +3.000E+02  +8.928E+03  +1.907E+02  -3.416E+02  -9.786E+02  +6.996E+01  +8.868E+03
  +3.54E+04  +4.50E+05  +1.95E+05  +3.000E+02  +8.928E+03  +1.907E+02  -3.416E+02  -9.786E+02  +6.996E+01  +8.868E+03

element # = 432     type =4-n tetrahedron
 XX         YY         ZZ         SIGXX       SIGYY       SIGZZ       TAUXY       TAUYZ       TAUZX       SIGV
  +1.37E+05  +8.96E+05  +2.22E+04  +6.063E+01  -8.812E+01  +4.050E+00  +1.015E+01  -2.062E+02  +5.124E+00  +3.806E+02
  +1.07E+05  +9.14E+05  +4.33E+04  +6.063E+01  -8.812E+01  +4.050E+00  +1.015E+01  -2.062E+02  +5.124E+00  +3.806E+02
  +1.32E+05  +9.23E+05  +4.51E+04  +6.063E+01  -8.812E+01  +4.050E+00  +1.015E+01  -2.062E+02  +5.124E+00  +3.806E+02
  +1.32E+05  +8.79E+05  +4.99E+04  +6.063E+01  -8.812E+01  +4.050E+00  +1.015E+01  -2.062E+02  +5.124E+00  +3.806E+02

element # = 433     type =4-n tetrahedron
 XX         YY         ZZ         SIGXX       SIGYY       SIGZZ       TAUXY       TAUYZ       TAUZX       SIGV
  +1.32E+05  +9.04E+05  +1.36E+04  +3.779E+01  -2.263E+02  +3.618E+01  +1.123E+01  -1.641E+02  +2.798E+01  +3.910E+02
  +1.02E+05  +9.23E+05  +3.47E+04  +3.779E+01  -2.263E+02  +3.618E+01  +1.123E+01  -1.641E+02  +2.798E+01  +3.910E+02
  +1.10E+05  +9.16E+05  +1.36E+04  +3.779E+01  -2.263E+02  +3.618E+01  +1.123E+01  -1.641E+02  +2.798E+01  +3.910E+02
  +1.26E+05  +9.31E+05  +3.66E+04  +3.779E+01  -2.263E+02  +3.618E+01  +1.123E+01  -1.641E+02  +2.798E+01  +3.910E+02

element # = 434     type =4-n tetrahedron
 XX         YY         ZZ         SIGXX       SIGYY       SIGZZ       TAUXY       TAUYZ       TAUZX       SIGV
  +1.50E+05  +8.65E+05  +1.54E+05  -1.343E+02  +1.410E+02  -6.255E+02  -2.614E+01  -3.827E+02  +1.635E+00  +9.453E+02
  +1.75E+05  +8.42E+05  +1.54E+05  -1.343E+02  +1.410E+02  -6.255E+02  -2.614E+01  -3.827E+02  +1.635E+00  +9.453E+02
  +1.43E+05  +8.38E+05  +1.46E+05  -1.343E+02  +1.410E+02  -6.255E+02  -2.614E+01  -3.827E+02  +1.635E+00  +9.453E+02
  +1.53E+05  +8.42E+05  +1.77E+05  -1.343E+02  +1.410E+02  -6.255E+02  -2.614E+01  -3.827E+02  +1.635E+00  +9.453E+02

element # = 435     type =4-n tetrahedron
 XX         YY         ZZ         SIGXX       SIGYY       SIGZZ       TAUXY       TAUYZ       TAUZX       SIGV
  +4.22E+04  +8.43E+05  +1.10E+04  +7.689E+01  -3.882E+02  +7.839E+01  +1.217E+01  -2.214E+02  -2.812E+01  +6.057E+02
  +1.97E+04  +8.52E+05  +1.10E+04  +7.689E+01  -3.882E+02  +7.839E+01  +1.217E+01  -2.214E+02  -2.812E+01  +6.057E+02
  +3.80E+04  +8.60E+05  +2.98E+04  +7.689E+01  -3.882E+02  +7.839E+01  +1.217E+01  -2.214E+02  -2.812E+01  +6.057E+02
  +4.28E+04  +8.39E+05  +2.77E+04  +7.689E+01  -3.882E+02  +7.839E+01  +1.217E+01  -2.214E+02  -2.812E+01  +6.057E+02

element # = 436     type =4-n tetrahedron
 XX         YY         ZZ         SIGXX       SIGYY       SIGZZ       TAUXY       TAUYZ       TAUZX       SIGV
  +1.93E+05  +3.94E+05  +6.91E+03  -6.745E+02  -1.133E+04  -1.942E+02  -4.082E+02  -7.232E+02  -8.008E+02  +1.108E+04
  +1.93E+05  +4.05E+05  +2.93E+04  -6.745E+02  -1.133E+04  -1.942E+02  -4.082E+02  -7.232E+02  -8.008E+02  +1.108E+04
  +1.71E+05  +4.05E+05  +6.91E+03  -6.745E+02  -1.133E+04  -1.942E+02  -4.082E+02  -7.232E+02  -8.008E+02  +1.108E+04
  +1.93E+05  +4.15E+05  +6.91E+03  -6.745E+02  -1.133E+04  -1.942E+02  -4.082E+02  -7.232E+02  -8.008E+02  +1.108E+04

element # = 437     type =4-n tetrahedron
 XX         YY         ZZ         SIGXX       SIGYY       SIGZZ       TAUXY       TAUYZ       TAUZX       SIGV
  +1.86E+05  +8.76E+05  +2.95E+04  -7.444E+01  -6.503E+02  -2.002E+02  -1.118E+02  -1.057E+02  -2.082E+01  +5.893E+02
  +1.64E+05  +8.53E+05  +6.98E+03  -7.444E+01  -6.503E+02  -2.002E+02  -1.118E+02  -1.057E+02  -2.082E+01  +5.893E+02
  +1.86E+05  +8.62E+05  +6.98E+03  -7.444E+01  -6.503E+02  -2.002E+02  -1.118E+02  -1.057E+02  -2.082E+01  +5.893E+02
  +1.64E+05  +8.76E+05  +6.98E+03  -7.444E+01  -6.503E+02  -2.002E+02  -1.118E+02  -1.057E+02  -2.082E+01  +5.893E+02

element # = 438     type =4-n tetrahedron
 XX         YY         ZZ         SIGXX       SIGYY       SIGZZ       TAUXY       TAUYZ       TAUZX       SIGV
  +5.64E+03  +8.70E+05  +1.28E+04  -1.150E+01  -4.666E+02  -1.134E+02  +4.696E+01  -2.175E+02  +1.544E+01  +5.660E+02
  +5.64E+03  +8.83E+05  +3.54E+04  -1.150E+01  -4.666E+02  -1.134E+02  +4.696E+01  -2.175E+02  +1.544E+01  +5.660E+02
  +5.64E+03  +8.91E+05  +1.28E+04  -1.150E+01  -4.666E+02  -1.134E+02  +4.696E+01  -2.175E+02  +1.544E+01  +5.660E+02
  +2.39E+04  +8.77E+05  +3.16E+04  -1.150E+01  -4.666E+02  -1.134E+02  +4.696E+01  -2.175E+02  +1.544E+01  +5.660E+02

element # = 439     type =4-n tetrahedron
 XX         YY         ZZ         SIGXX       SIGYY       SIGZZ       TAUXY       TAUYZ       TAUZX       SIGV
  +1.76E+05  +3.20E+05  +3.73E+04  -3.022E+03  -1.596E+04  -1.512E+03  -9.302E+02  -1.109E+03  +6.578E+02  +1.403E+04
  +1.53E+05  +3.41E+05  +1.50E+04  -3.022E+03  -1.596E+04  -1.512E+03  -9.302E+02  -1.109E+03  +6.578E+02  +1.403E+04
  +1.42E+05  +3.32E+05  +4.10E+04  -3.022E+03  -1.596E+04  -1.512E+03  -9.302E+02  -1.109E+03  +6.578E+02  +1.403E+04
  +1.53E+05  +3.20E+05  +1.50E+04  -3.022E+03  -1.596E+04  -1.512E+03  -9.302E+02  -1.109E+03  +6.578E+02  +1.403E+04

element # = 440     type =4-n tetrahedron
 XX         YY         ZZ         SIGXX       SIGYY       SIGZZ       TAUXY       TAUYZ       TAUZX       SIGV
  +7.14E+03  +8.02E+05  +4.14E+04  +8.490E+01  -5.560E+02  +2.576E+01  +4.655E+00  -3.732E+02  +5.662E+01  +8.965E+02
  +7.14E+03  +8.24E+05  +4.15E+04  +8.490E+01  -5.560E+02  +2.576E+01  +4.655E+00  -3.732E+02  +5.662E+01  +8.965E+02
  +7.14E+03  +8.12E+05  +1.90E+04  +8.490E+01  -5.560E+02  +2.576E+01  +4.655E+00  -3.732E+02  +5.662E+01  +8.965E+02
  +3.02E+04  +8.20E+05  +3.58E+04  +8.490E+01  -5.560E+02  +2.576E+01  +4.655E+00  -3.732E+02  +5.662E+01  +8.965E+02

element # = 441     type =4-n tetrahedron
 XX         YY         ZZ         SIGXX       SIGYY       SIGZZ       TAUXY       TAUYZ       TAUZX       SIGV
  +6.05E+03  +9.55E+05  +1.34E+05  +2.549E+01  +4.017E+01  -2.539E+02  -6.509E+00  -1.311E+02  -2.029E+00  +3.661E+02
  +2.56E+04  +9.58E+05  +1.24E+05  +2.549E+01  +4.017E+01  -2.539E+02  -6.509E+00  -1.311E+02  -2.029E+00  +3.661E+02
  +6.05E+03  +9.80E+05  +1.22E+05  +2.549E+01  +4.017E+01  -2.539E+02  -6.509E+00  -1.311E+02  -2.029E+00  +3.661E+02
  +6.05E+03  +9.62E+05  +1.13E+05  +2.549E+01  +4.017E+01  -2.539E+02  -6.509E+00  -1.311E+02  -2.029E+00  +3.661E+02

element # = 442     type =4-n tetrahedron
 XX         YY         ZZ         SIGXX       SIGYY       SIGZZ       TAUXY       TAUYZ       TAUZX       SIGV
  +1.64E+05  +9.94E+05  +1.31E+05  -2.321E+01  -6.163E+01  -3.215E+02  +8.660E+00  -5.796E+01  +4.325E+01  +3.081E+02
  +1.87E+05  +9.94E+05  +1.18E+05  -2.321E+01  -6.163E+01  -3.215E+02  +8.660E+00  -5.796E+01  +4.325E+01  +3.081E+02
  +1.68E+05  +9.94E+05  +1.09E+05  -2.321E+01  -6.163E+01  -3.215E+02  +8.660E+00  -5.796E+01  +4.325E+01  +3.081E+02
  +1.87E+05  +9.76E+05  +1.09E+05  -2.321E+01  -6.163E+01  -3.215E+02  +8.660E+00  -5.796E+01  +4.325E+01  +3.081E+02

element # = 443     type =4-n tetrahedron
 XX         YY         ZZ         SIGXX       SIGYY       SIGZZ       TAUXY       TAUYZ       TAUZX       SIGV
  +5.72E+04  +8.03E+05  +5.17E+03  -5.683E+01  -1.265E+03  -1.764E+02  +1.271E+02  -2.134E+02  +4.350E+01  +1.233E+03
  +7.95E+04  +8.14E+05  +5.17E+03  -5.683E+01  -1.265E+03  -1.764E+02  +1.271E+02  -2.134E+02  +4.350E+01  +1.233E+03
  +5.79E+04  +8.20E+05  +2.19E+04  -5.683E+01  -1.265E+03  -1.764E+02  +1.271E+02  -2.134E+02  +4.350E+01  +1.233E+03
  +5.73E+04  +8.25E+05  +5.17E+03  -5.683E+01  -1.265E+03  -1.764E+02  +1.271E+02  -2.134E+02  +4.350E+01  +1.233E+03

element # = 444     type =4-n tetrahedron
 XX         YY         ZZ         SIGXX       SIGYY       SIGZZ       TAUXY       TAUYZ       TAUZX       SIGV
  +4.35E+04  +9.12E+05  +3.30E+04  +3.184E+01  -1.752E+02  +5.819E+01  -1.021E+01  -1.415E+02  -1.055E+00  +3.307E+02
  +6.57E+04  +9.14E+05  +3.83E+04  +3.184E+01  -1.752E+02  +5.819E+01  -1.021E+01  -1.415E+02  -1.055E+00  +3.307E+02
  +5.12E+04  +8.96E+05  +1.72E+04  +3.184E+01  -1.752E+02  +5.819E+01  -1.021E+01  -1.415E+02  -1.055E+00  +3.307E+02
  +4.69E+04  +8.90E+05  +3.60E+04  +3.184E+01  -1.752E+02  +5.819E+01  -1.021E+01  -1.415E+02  -1.055E+00  +3.307E+02

element # = 445     type =4-n tetrahedron
 XX         YY         ZZ         SIGXX       SIGYY       SIGZZ       TAUXY       TAUYZ       TAUZX       SIGV
  +7.93E+04  +6.08E+05  +1.30E+05  +4.678E+02  +2.804E+03  -3.740E+02  +1.682E+01  -6.460E+02  +1.916E+02  +3.081E+03
  +5.67E+04  +6.09E+05  +1.49E+05  +4.678E+02  +2.804E+03  -3.740E+02  +1.682E+01  -6.460E+02  +1.916E+02  +3.081E+03
  +5.21E+04  +5.89E+05  +1.41E+05  +4.678E+02  +2.804E+03  -3.740E+02  +1.682E+01  -6.460E+02  +1.916E+02  +3.081E+03
  +5.02E+04  +6.10E+05  +1.31E+05  +4.678E+02  +2.804E+03  -3.740E+02  +1.682E+01  -6.460E+02  +1.916E+02  +3.081E+03

element # = 446     type =4-n tetrahedron
 XX         YY         ZZ         SIGXX       SIGYY       SIGZZ       TAUXY       TAUYZ       TAUZX       SIGV
  +1.94E+05  +9.94E+05  +1.09E+05  +6.423E+00  -4.445E-01  -2.426E+02  +1.425E+01  -9.022E+01  +4.413E+01  +3.021E+02
  +1.94E+05  +9.94E+05  +9.11E+04  +6.423E+00  -4.445E-01  -2.426E+02  +1.425E+01  -9.022E+01  +4.413E+01  +3.021E+02
  +1.75E+05  +9.94E+05  +1.00E+05  +6.423E+00  -4.445E-01  -2.426E+02  +1.425E+01  -9.022E+01  +4.413E+01  +3.021E+02
  +1.94E+05  +9.76E+05  +1.00E+05  +6.423E+00  -4.445E-01  -2.426E+02  +1.425E+01  -9.022E+01  +4.413E+01  +3.021E+02

element # = 447     type =4-n tetrahedron
 XX         YY         ZZ         SIGXX       SIGYY       SIGZZ       TAUXY       TAUYZ       TAUZX       SIGV
  +1.44E+05  +7.04E+05  +1.23E+05  +6.425E+02  +1.356E+03  +1.839E+02  +2.468E+02  -5.236E+02  +1.894E+02  +1.470E+03
  +1.41E+05  +7.40E+05  +9.26E+04  +6.425E+02  +1.356E+03  +1.839E+02  +2.468E+02  -5.236E+02  +1.894E+02  +1.470E+03
  +1.72E+05  +7.21E+05  +1.06E+05  +6.425E+02  +1.356E+03  +1.839E+02  +2.468E+02  -5.236E+02  +1.894E+02  +1.470E+03
  +1.39E+05  +7.38E+05  +1.25E+05  +6.425E+02  +1.356E+03  +1.839E+02  +2.468E+02  -5.236E+02  +1.894E+02  +1.470E+03

element # = 448     type =4-n tetrahedron
 XX         YY         ZZ         SIGXX       SIGYY       SIGZZ       TAUXY       TAUYZ       TAUZX       SIGV
  +1.53E+04  +7.79E+05  +3.46E+04  -1.445E+01  -1.326E+03  -1.015E+02  +2.696E+01  -3.854E+02  +2.750E+01  +1.436E+03
  +3.77E+04  +7.79E+05  +1.22E+04  -1.445E+01  -1.326E+03  -1.015E+02  +2.696E+01  -3.854E+02  +2.750E+01  +1.436E+03
  +1.53E+04  +7.68E+05  +1.22E+04  -1.445E+01  -1.326E+03  -1.015E+02  +2.696E+01  -3.854E+02  +2.750E+01  +1.436E+03
  +4.23E+04  +7.63E+05  +2.92E+04  -1.445E+01  -1.326E+03  -1.015E+02  +2.696E+01  -3.854E+02  +2.750E+01  +1.436E+03

element # = 449     type =4-n tetrahedron
 XX         YY         ZZ         SIGXX       SIGYY       SIGZZ       TAUXY       TAUYZ       TAUZX       SIGV
  +7.90E+04  +8.93E+05  +1.35E+05  -3.227E+01  +1.269E+02  -3.993E+02  -2.973E+01  -2.330E+02  +3.728E-01  +6.196E+02
  +1.18E+05  +8.98E+05  +1.44E+05  -3.227E+01  +1.269E+02  -3.993E+02  -2.973E+01  -2.330E+02  +3.728E-01  +6.196E+02
  +8.69E+04  +9.09E+05  +1.50E+05  -3.227E+01  +1.269E+02  -3.993E+02  -2.973E+01  -2.330E+02  +3.728E-01  +6.196E+02
  +1.05E+05  +9.22E+05  +1.28E+05  -3.227E+01  +1.269E+02  -3.993E+02  -2.973E+01  -2.330E+02  +3.728E-01  +6.196E+02

element # = 450     type =4-n tetrahedron
 XX         YY         ZZ         SIGXX       SIGYY       SIGZZ       TAUXY       TAUYZ       TAUZX       SIGV
  +1.42E+05  +3.76E+05  +1.37E+05  -6.656E+02  +4.652E+03  -3.911E+03  -9.197E+01  -1.206E+03  -1.059E+03  +7.989E+03
  +1.44E+05  +3.40E+05  +1.33E+05  -6.656E+02  +4.652E+03  -3.911E+03  -9.197E+01  -1.206E+03  -1.059E+03  +7.989E+03
  +1.69E+05  +3.70E+05  +1.16E+05  -6.656E+02  +4.652E+03  -3.911E+03  -9.197E+01  -1.206E+03  -1.059E+03  +7.989E+03
  +1.22E+05  +3.58E+05  +1.29E+05  -6.656E+02  +4.652E+03  -3.911E+03  -9.197E+01  -1.206E+03  -1.059E+03  +7.989E+03

element # = 451     type =4-n tetrahedron
 XX         YY         ZZ         SIGXX       SIGYY       SIGZZ       TAUXY       TAUYZ       TAUZX       SIGV
  +1.22E+05  +9.51E+05  +6.63E+04  +3.780E+01  +3.555E+01  -1.516E+02  +1.206E+00  -1.292E+02  -2.096E+01  +2.947E+02
  +1.05E+05  +9.75E+05  +8.81E+04  +3.780E+01  +3.555E+01  -1.516E+02  +1.206E+00  -1.292E+02  -2.096E+01  +2.947E+02
  +1.12E+05  +9.49E+05  +9.49E+04  +3.780E+01  +3.555E+01  -1.516E+02  +1.206E+00  -1.292E+02  -2.096E+01  +2.947E+02
  +9.72E+04  +9.42E+05  +6.45E+04  +3.780E+01  +3.555E+01  -1.516E+02  +1.206E+00  -1.292E+02  -2.096E+01  +2.947E+02

element # = 452     type =4-n tetrahedron
 XX         YY         ZZ         SIGXX       SIGYY       SIGZZ       TAUXY       TAUYZ       TAUZX       SIGV
  +1.66E+05  +8.98E+05  +1.57E+05  -7.664E+01  +1.415E+02  -5.183E+02  +5.476E+00  -1.846E+02  +1.131E+01  +6.646E+02
  +1.92E+05  +8.97E+05  +1.56E+05  -7.664E+01  +1.415E+02  -5.183E+02  +5.476E+00  -1.846E+02  +1.131E+01  +6.646E+02
  +1.92E+05  +9.05E+05  +1.79E+05  -7.664E+01  +1.415E+02  -5.183E+02  +5.476E+00  -1.846E+02  +1.131E+01  +6.646E+02
  +1.92E+05  +9.23E+05  +1.55E+05  -7.664E+01  +1.415E+02  -5.183E+02  +5.476E+00  -1.846E+02  +1.131E+01  +6.646E+02

element # = 453     type =4-n tetrahedron
 XX         YY         ZZ         SIGXX       SIGYY       SIGZZ       TAUXY       TAUYZ       TAUZX       SIGV
  +3.54E+04  +7.57E+05  +3.62E+04  +1.882E+02  -8.476E+02  +8.591E+01  +9.541E+01  -4.422E+02  +3.238E+01  +1.263E+03
  +8.35E+03  +7.72E+05  +4.15E+04  +1.882E+02  -8.476E+02  +8.591E+01  +9.541E+01  -4.422E+02  +3.238E+01  +1.263E+03
  +8.35E+03  +7.50E+05  +4.15E+04  +1.882E+02  -8.476E+02  +8.591E+01  +9.541E+01  -4.422E+02  +3.238E+01  +1.263E+03
  +8.35E+03  +7.61E+05  +1.91E+04  +1.882E+02  -8.476E+02  +8.591E+01  +9.541E+01  -4.422E+02  +3.238E+01  +1.263E+03

element # = 454     type =4-n tetrahedron
 XX         YY         ZZ         SIGXX       SIGYY       SIGZZ       TAUXY       TAUYZ       TAUZX       SIGV
  +5.53E+03  +2.79E+04  +1.94E+05  +1.684E+04  +3.929E+04  +1.684E+04  +4.299E+03  -6.414E+03  +0.000E+00  +2.613E+04
  +5.53E+03  +6.58E+03  +1.94E+05  +1.684E+04  +3.929E+04  +1.684E+04  +4.299E+03  -6.414E+03  +0.000E+00  +2.613E+04
  +2.34E+04  +6.58E+03  +1.94E+05  +1.684E+04  +3.929E+04  +1.684E+04  +4.299E+03  -6.414E+03  +0.000E+00  +2.613E+04
  +5.53E+03  +6.58E+03  +1.77E+05  +1.684E+04  +3.929E+04  +1.684E+04  +4.299E+03  -6.414E+03  +0.000E+00  +2.613E+04

element # = 455     type =4-n tetrahedron
 XX         YY         ZZ         SIGXX       SIGYY       SIGZZ       TAUXY       TAUYZ       TAUZX       SIGV
  +9.93E+04  +8.40E+05  +1.17E+05  +1.472E+01  +6.719E+00  -2.613E+02  -4.835E+01  -4.674E+02  -2.027E+01  +8.589E+02
  +7.78E+04  +8.58E+05  +9.45E+04  +1.472E+01  +6.719E+00  -2.613E+02  -4.835E+01  -4.674E+02  -2.027E+01  +8.589E+02
  +6.75E+04  +8.62E+05  +1.17E+05  +1.472E+01  +6.719E+00  -2.613E+02  -4.835E+01  -4.674E+02  -2.027E+01  +8.589E+02
  +6.10E+04  +8.39E+05  +9.82E+04  +1.472E+01  +6.719E+00  -2.613E+02  -4.835E+01  -4.674E+02  -2.027E+01  +8.589E+02

element # = 456     type =4-n tetrahedron
 XX         YY         ZZ         SIGXX       SIGYY       SIGZZ       TAUXY       TAUYZ       TAUZX       SIGV
  +1.27E+05  +8.93E+05  +6.53E+03  -3.583E+01  -5.002E+02  -7.445E+01  -1.573E+00  -1.345E+02  +3.345E+01  +5.068E+02
  +9.68E+04  +9.11E+05  +2.76E+04  -3.583E+01  -5.002E+02  -7.445E+01  -1.573E+00  -1.345E+02  +3.345E+01  +5.068E+02
  +1.04E+05  +8.81E+05  +6.53E+03  -3.583E+01  -5.002E+02  -7.445E+01  -1.573E+00  -1.345E+02  +3.345E+01  +5.068E+02
  +1.04E+05  +9.04E+05  +6.53E+03  -3.583E+01  -5.002E+02  -7.445E+01  -1.573E+00  -1.345E+02  +3.345E+01  +5.068E+02

element # = 457     type =4-n tetrahedron
 XX         YY         ZZ         SIGXX       SIGYY       SIGZZ       TAUXY       TAUYZ       TAUZX       SIGV
  +4.68E+04  +7.93E+05  +2.12E+04  +4.788E+01  -6.278E+02  +1.150E+02  -5.375E+00  -4.399E+02  -5.842E+01  +1.047E+03
  +2.44E+04  +7.93E+05  +4.36E+04  +4.788E+01  -6.278E+02  +1.150E+02  -5.375E+00  -4.399E+02  -5.842E+01  +1.047E+03
  +4.75E+04  +8.11E+05  +3.79E+04  +4.788E+01  -6.278E+02  +1.150E+02  -5.375E+00  -4.399E+02  -5.842E+01  +1.047E+03
  +5.78E+04  +7.96E+05  +5.06E+04  +4.788E+01  -6.278E+02  +1.150E+02  -5.375E+00  -4.399E+02  -5.842E+01  +1.047E+03

element # = 458     type =4-n tetrahedron
 XX         YY         ZZ         SIGXX       SIGYY       SIGZZ       TAUXY       TAUYZ       TAUZX       SIGV
  +3.15E+04  +9.01E+05  +9.27E+04  -3.762E+01  -5.823E+01  -3.279E+02  -7.313E+00  -3.647E+02  -5.678E+00  +6.913E+02
  +3.87E+04  +8.85E+05  +1.14E+05  -3.762E+01  -5.823E+01  -3.279E+02  -7.313E+00  -3.647E+02  -5.678E+00  +6.913E+02
  +1.34E+04  +8.78E+05  +1.01E+05  -3.762E+01  -5.823E+01  -3.279E+02  -7.313E+00  -3.647E+02  -5.678E+00  +6.913E+02
  +1.34E+04  +9.01E+05  +1.01E+05  -3.762E+01  -5.823E+01  -3.279E+02  -7.313E+00  -3.647E+02  -5.678E+00  +6.913E+02

element # = 459     type =4-n tetrahedron
 XX         YY         ZZ         SIGXX       SIGYY       SIGZZ       TAUXY       TAUYZ       TAUZX       SIGV
  +1.76E+05  +1.53E+05  +1.62E+05  +2.827E+03  +2.373E+04  -1.523E+03  -9.902E+02  -1.941E+03  +3.791E+02  +2.369E+04
  +1.53E+05  +1.30E+05  +1.84E+05  +2.827E+03  +2.373E+04  -1.523E+03  -9.902E+02  -1.941E+03  +3.791E+02  +2.369E+04
  +1.43E+05  +1.40E+05  +1.57E+05  +2.827E+03  +2.373E+04  -1.523E+03  -9.902E+02  -1.941E+03  +3.791E+02  +2.369E+04
  +1.53E+05  +1.53E+05  +1.84E+05  +2.827E+03  +2.373E+04  -1.523E+03  -9.902E+02  -1.941E+03  +3.791E+02  +2.369E+04

element # = 460     type =4-n tetrahedron
 XX         YY         ZZ         SIGXX       SIGYY       SIGZZ       TAUXY       TAUYZ       TAUZX       SIGV
  +1.33E+05  +4.93E+05  +1.59E+05  -2.917E+02  +5.352E+03  -3.720E+02  +7.840E+02  -8.166E+02  -2.478E+02  +6.029E+03
  +1.41E+05  +4.66E+05  +1.64E+05  -2.917E+02  +5.352E+03  -3.720E+02  +7.840E+02  -8.166E+02  -2.478E+02  +6.029E+03
  +1.18E+05  +4.79E+05  +1.85E+05  -2.917E+02  +5.352E+03  -3.720E+02  +7.840E+02  -8.166E+02  -2.478E+02  +6.029E+03
  +1.41E+05  +4.90E+05  +1.85E+05  -2.917E+02  +5.352E+03  -3.720E+02  +7.840E+02  -8.166E+02  -2.478E+02  +6.029E+03

element # = 461     type =4-n tetrahedron
 XX         YY         ZZ         SIGXX       SIGYY       SIGZZ       TAUXY       TAUYZ       TAUZX       SIGV
  +1.07E+05  +7.37E+05  +1.25E+05  -1.183E+01  +8.169E+01  -3.983E+02  +1.231E+02  -9.898E+02  -2.670E+01  +1.783E+03
  +9.12E+04  +7.11E+05  +9.45E+04  -1.183E+01  +8.169E+01  -3.983E+02  +1.231E+02  -9.898E+02  -2.670E+01  +1.783E+03
  +7.50E+04  +7.28E+05  +9.88E+04  -1.183E+01  +8.169E+01  -3.983E+02  +1.231E+02  -9.898E+02  -2.670E+01  +1.783E+03
  +8.73E+04  +7.21E+05  +1.27E+05  -1.183E+01  +8.169E+01  -3.983E+02  +1.231E+02  -9.898E+02  -2.670E+01  +1.783E+03

element # = 462     type =4-n tetrahedron
 XX         YY         ZZ         SIGXX       SIGYY       SIGZZ       TAUXY       TAUYZ       TAUZX       SIGV
  +9.73E+04  +6.78E+05  +6.05E+04  +3.900E+02  -1.067E+03  +3.552E+02  +1.333E+02  -6.715E+02  +2.889E+02  +1.931E+03
  +8.67E+04  +6.49E+05  +5.84E+04  +3.900E+02  -1.067E+03  +3.552E+02  +1.333E+02  -6.715E+02  +2.889E+02  +1.931E+03
  +1.20E+05  +6.67E+05  +5.28E+04  +3.900E+02  -1.067E+03  +3.552E+02  +1.333E+02  -6.715E+02  +2.889E+02  +1.931E+03
  +1.01E+05  +6.66E+05  +2.75E+04  +3.900E+02  -1.067E+03  +3.552E+02  +1.333E+02  -6.715E+02  +2.889E+02  +1.931E+03

element # = 463     type =4-n tetrahedron
 XX         YY         ZZ         SIGXX       SIGYY       SIGZZ       TAUXY       TAUYZ       TAUZX       SIGV
  +1.07E+05  +6.77E+05  +8.64E+04  +3.815E+02  +6.241E+02  -4.887E+01  +2.912E+02  -8.045E+02  -5.144E+01  +1.598E+03
  +1.12E+05  +6.41E+05  +1.07E+05  +3.815E+02  +6.241E+02  -4.887E+01  +2.912E+02  -8.045E+02  -5.144E+01  +1.598E+03
  +1.27E+05  +6.69E+05  +1.14E+05  +3.815E+02  +6.241E+02  -4.887E+01  +2.912E+02  -8.045E+02  -5.144E+01  +1.598E+03
  +1.30E+05  +6.66E+05  +7.86E+04  +3.815E+02  +6.241E+02  -4.887E+01  +2.912E+02  -8.045E+02  -5.144E+01  +1.598E+03

element # = 464     type =4-n tetrahedron
 XX         YY         ZZ         SIGXX       SIGYY       SIGZZ       TAUXY       TAUYZ       TAUZX       SIGV
  +1.91E+05  +6.37E+05  +1.12E+05  -5.854E+02  -1.798E+02  -6.982E+02  -3.540E+02  -1.311E+03  -2.165E+02  +2.427E+03
  +1.91E+05  +6.48E+05  +1.34E+05  -5.854E+02  -1.798E+02  -6.982E+02  -3.540E+02  -1.311E+03  -2.165E+02  +2.427E+03
  +1.63E+05  +6.62E+05  +1.28E+05  -5.854E+02  -1.798E+02  -6.982E+02  -3.540E+02  -1.311E+03  -2.165E+02  +2.427E+03
  +1.91E+05  +6.58E+05  +1.12E+05  -5.854E+02  -1.798E+02  -6.982E+02  -3.540E+02  -1.311E+03  -2.165E+02  +2.427E+03

element # = 465     type =4-n tetrahedron
 XX         YY         ZZ         SIGXX       SIGYY       SIGZZ       TAUXY       TAUYZ       TAUZX       SIGV
  +1.85E+05  +6.40E+05  +1.42E+05  +2.398E+02  +1.777E+03  -4.176E+01  +3.745E+01  -1.444E+03  -1.379E+02  +3.032E+03
  +1.85E+05  +6.30E+05  +1.19E+05  +2.398E+02  +1.777E+03  -4.176E+01  +3.745E+01  -1.444E+03  -1.379E+02  +3.032E+03
  +1.57E+05  +6.55E+05  +1.36E+05  +2.398E+02  +1.777E+03  -4.176E+01  +3.745E+01  -1.444E+03  -1.379E+02  +3.032E+03
  +1.63E+05  +6.28E+05  +1.43E+05  +2.398E+02  +1.777E+03  -4.176E+01  +3.745E+01  -1.444E+03  -1.379E+02  +3.032E+03

element # = 466     type =4-n tetrahedron
 XX         YY         ZZ         SIGXX       SIGYY       SIGZZ       TAUXY       TAUYZ       TAUZX       SIGV
  +3.53E+04  +2.21E+05  +3.57E+04  +8.066E+02  -8.953E+03  +3.259E+02  -1.625E+01  -1.993E+03  -7.097E+02  +1.021E+04
  +1.83E+04  +2.13E+05  +3.43E+04  +8.066E+02  -8.953E+03  +3.259E+02  -1.625E+01  -1.993E+03  -7.097E+02  +1.021E+04
  +3.81E+04  +2.02E+05  +3.82E+04  +8.066E+02  -8.953E+03  +3.259E+02  -1.625E+01  -1.993E+03  -7.097E+02  +1.021E+04
  +4.07E+04  +2.13E+05  +1.73E+04  +8.066E+02  -8.953E+03  +3.259E+02  -1.625E+01  -1.993E+03  -7.097E+02  +1.021E+04

element # = 467     type =4-n tetrahedron
 XX         YY         ZZ         SIGXX       SIGYY       SIGZZ       TAUXY       TAUYZ       TAUZX       SIGV
  +1.67E+05  +6.68E+05  +4.68E+04  +1.479E+01  -1.449E+03  +1.697E+02  -9.145E+01  -7.247E+02  -2.192E+02  +2.034E+03
  +1.92E+05  +6.67E+05  +2.16E+04  +1.479E+01  -1.449E+03  +1.697E+02  -9.145E+01  -7.247E+02  -2.192E+02  +2.034E+03
  +1.92E+05  +6.57E+05  +4.40E+04  +1.479E+01  -1.449E+03  +1.697E+02  -9.145E+01  -7.247E+02  -2.192E+02  +2.034E+03
  +1.92E+05  +6.78E+05  +4.40E+04  +1.479E+01  -1.449E+03  +1.697E+02  -9.145E+01  -7.247E+02  -2.192E+02  +2.034E+03

element # = 468     type =4-n tetrahedron
 XX         YY         ZZ         SIGXX       SIGYY       SIGZZ       TAUXY       TAUYZ       TAUZX       SIGV
  +3.53E+04  +6.93E+05  +6.37E+03  -1.417E+02  -2.908E+03  -2.653E+02  +1.168E+01  -3.714E+02  +3.132E+01  +2.783E+03
  +3.22E+04  +6.99E+05  +2.70E+04  -1.417E+02  -2.908E+03  -2.653E+02  +1.168E+01  -3.714E+02  +3.132E+01  +2.783E+03
  +1.29E+04  +6.82E+05  +6.37E+03  -1.417E+02  -2.908E+03  -2.653E+02  +1.168E+01  -3.714E+02  +3.132E+01  +2.783E+03
  +1.29E+04  +7.03E+05  +6.37E+03  -1.417E+02  -2.908E+03  -2.653E+02  +1.168E+01  -3.714E+02  +3.132E+01  +2.783E+03

element # = 469     type =4-n tetrahedron
 XX         YY         ZZ         SIGXX       SIGYY       SIGZZ       TAUXY       TAUYZ       TAUZX       SIGV
  +1.69E+04  +1.32E+05  +4.34E+04  +3.654E+02  -1.287E+04  +2.426E+03  -1.046E+01  -5.728E+02  +5.010E+02  +1.444E+04
  +3.93E+04  +1.53E+05  +2.10E+04  +3.654E+02  -1.287E+04  +2.426E+03  -1.046E+01  -5.728E+02  +5.010E+02  +1.444E+04
  +4.90E+04  +1.38E+05  +4.65E+04  +3.654E+02  -1.287E+04  +2.426E+03  -1.046E+01  -5.728E+02  +5.010E+02  +1.444E+04
  +1.69E+04  +1.54E+05  +4.12E+04  +3.654E+02  -1.287E+04  +2.426E+03  -1.046E+01  -5.728E+02  +5.010E+02  +1.444E+04

element # = 470     type =4-n tetrahedron
 XX         YY         ZZ         SIGXX       SIGYY       SIGZZ       TAUXY       TAUYZ       TAUZX       SIGV
  +1.21E+05  +6.19E+05  +1.94E+05  +6.199E+02  +5.606E+03  -2.860E+01  -2.375E+01  -7.236E+02  -1.299E+02  +5.490E+03
  +1.44E+05  +6.17E+05  +1.73E+05  +6.199E+02  +5.606E+03  -2.860E+01  -2.375E+01  -7.236E+02  -1.299E+02  +5.490E+03
  +1.43E+05  +6.08E+05  +1.94E+05  +6.199E+02  +5.606E+03  -2.860E+01  -2.375E+01  -7.236E+02  -1.299E+02  +5.490E+03
  +1.43E+05  +6.29E+05  +1.94E+05  +6.199E+02  +5.606E+03  -2.860E+01  -2.375E+01  -7.236E+02  -1.299E+02  +5.490E+03

element # = 471     type =4-n tetrahedron
 XX         YY         ZZ         SIGXX       SIGYY       SIGZZ       TAUXY       TAUYZ       TAUZX       SIGV
  +5.61E+04  +3.43E+05  +1.94E+05  +7.607E+02  +1.455E+04  -7.977E+02  -1.982E+02  -1.433E+03  +8.137E+02  +1.491E+04
  +7.84E+04  +3.33E+05  +1.94E+05  +7.607E+02  +1.455E+04  -7.977E+02  -1.982E+02  -1.433E+03  +8.137E+02  +1.491E+04
  +5.32E+04  +3.32E+05  +1.75E+05  +7.607E+02  +1.455E+04  -7.977E+02  -1.982E+02  -1.433E+03  +8.137E+02  +1.491E+04
  +5.61E+04  +3.22E+05  +1.94E+05  +7.607E+02  +1.455E+04  -7.977E+02  -1.982E+02  -1.433E+03  +8.137E+02  +1.491E+04

element # = 472     type =4-n tetrahedron
 XX         YY         ZZ         SIGXX       SIGYY       SIGZZ       TAUXY       TAUYZ       TAUZX       SIGV
  +1.28E+05  +2.59E+05  +1.27E+05  +3.827E+02  +5.150E+03  +1.053E+03  +2.419E+01  -1.078E+03  -4.459E+02  +4.906E+03
  +1.06E+05  +2.87E+05  +1.09E+05  +3.827E+02  +5.150E+03  +1.053E+03  +2.419E+01  -1.078E+03  -4.459E+02  +4.906E+03
  +1.29E+05  +2.95E+05  +1.32E+05  +3.827E+02  +5.150E+03  +1.053E+03  +2.419E+01  -1.078E+03  -4.459E+02  +4.906E+03
  +1.04E+05  +2.81E+05  +1.36E+05  +3.827E+02  +5.150E+03  +1.053E+03  +2.419E+01  -1.078E+03  -4.459E+02  +4.906E+03

element # = 473     type =4-n tetrahedron
 XX         YY         ZZ         SIGXX       SIGYY       SIGZZ       TAUXY       TAUYZ       TAUZX       SIGV
  +1.22E+04  +2.85E+05  +1.10E+05  +2.888E+02  +1.488E+03  +2.552E+02  -3.956E+02  -2.152E+03  +1.322E+02  +3.986E+03
  +1.22E+04  +2.79E+05  +9.14E+04  +2.888E+02  +1.488E+03  +2.552E+02  -3.956E+02  -2.152E+03  +1.322E+02  +3.986E+03
  +3.27E+04  +2.64E+05  +1.03E+05  +2.888E+02  +1.488E+03  +2.552E+02  -3.956E+02  -2.152E+03  +1.322E+02  +3.986E+03
  +3.10E+04  +2.92E+05  +1.06E+05  +2.888E+02  +1.488E+03  +2.552E+02  -3.956E+02  -2.152E+03  +1.322E+02  +3.986E+03

element # = 474     type =4-n tetrahedron
 XX         YY         ZZ         SIGXX       SIGYY       SIGZZ       TAUXY       TAUYZ       TAUZX       SIGV
  +3.66E+04  +3.60E+05  +7.26E+04  -7.001E+02  -6.054E+03  -2.252E+02  -4.166E+00  -1.847E+03  +1.300E+02  +6.459E+03
  +3.68E+04  +3.80E+05  +5.31E+04  -7.001E+02  -6.054E+03  -2.252E+02  -4.166E+00  -1.847E+03  +1.300E+02  +6.459E+03
  +1.40E+04  +3.68E+05  +7.26E+04  -7.001E+02  -6.054E+03  -2.252E+02  -4.166E+00  -1.847E+03  +1.300E+02  +6.459E+03
  +1.40E+04  +3.61E+05  +5.35E+04  -7.001E+02  -6.054E+03  -2.252E+02  -4.166E+00  -1.847E+03  +1.300E+02  +6.459E+03

element # = 475     type =4-n tetrahedron
 XX         YY         ZZ         SIGXX       SIGYY       SIGZZ       TAUXY       TAUYZ       TAUZX       SIGV
  +5.91E+03  +2.48E+04  +1.00E+05  -9.097E+00  -2.123E+01  -9.097E+00  -1.951E+02  -3.055E+03  +0.000E+00  +5.302E+03
  +2.50E+04  +5.85E+03  +1.00E+05  -9.097E+00  -2.123E+01  -9.097E+00  -1.951E+02  -3.055E+03  +0.000E+00  +5.302E+03
  +5.91E+03  +5.85E+03  +9.11E+04  -9.097E+00  -2.123E+01  -9.097E+00  -1.951E+02  -3.055E+03  +0.000E+00  +5.302E+03
  +5.91E+03  +5.85E+03  +1.09E+05  -9.097E+00  -2.123E+01  -9.097E+00  -1.951E+02  -3.055E+03  +0.000E+00  +5.302E+03

element # = 476     type =4-n tetrahedron
 XX         YY         ZZ         SIGXX       SIGYY       SIGZZ       TAUXY       TAUYZ       TAUZX       SIGV
  +1.77E+05  +6.82E+05  +1.62E+05  +6.677E+02  +3.675E+03  +7.007E+01  -1.109E+02  -3.819E+02  +5.685E+01  +3.418E+03
  +1.55E+05  +6.61E+05  +1.84E+05  +6.677E+02  +3.675E+03  +7.007E+01  -1.109E+02  -3.819E+02  +5.685E+01  +3.418E+03
  +1.49E+05  +6.76E+05  +1.56E+05  +6.677E+02  +3.675E+03  +7.007E+01  -1.109E+02  -3.819E+02  +5.685E+01  +3.418E+03
  +1.55E+05  +6.82E+05  +1.84E+05  +6.677E+02  +3.675E+03  +7.007E+01  -1.109E+02  -3.819E+02  +5.685E+01  +3.418E+03

element # = 477     type =4-n tetrahedron
 XX         YY         ZZ         SIGXX       SIGYY       SIGZZ       TAUXY       TAUYZ       TAUZX       SIGV
  +1.84E+05  +6.76E+05  +1.55E+05  -9.443E+01  +1.696E+03  -9.102E+02  -4.059E+01  -8.162E+02  +1.526E+01  +2.708E+03
  +1.62E+05  +6.54E+05  +1.77E+05  -9.443E+01  +1.696E+03  -9.102E+02  -4.059E+01  -8.162E+02  +1.526E+01  +2.708E+03
  +1.84E+05  +6.54E+05  +1.55E+05  -9.443E+01  +1.696E+03  -9.102E+02  -4.059E+01  -8.162E+02  +1.526E+01  +2.708E+03
  +1.56E+05  +6.69E+05  +1.49E+05  -9.443E+01  +1.696E+03  -9.102E+02  -4.059E+01  -8.162E+02  +1.526E+01  +2.708E+03

element # = 478     type =4-n tetrahedron
 XX         YY         ZZ         SIGXX       SIGYY       SIGZZ       TAUXY       TAUYZ       TAUZX       SIGV
  +1.85E+05  +2.75E+05  +1.55E+05  -2.421E+02  +7.928E+03  -5.412E+02  -1.460E+02  -1.900E+03  -2.819E+02  +8.968E+03
  +1.61E+05  +2.99E+05  +1.50E+05  -2.421E+02  +7.928E+03  -5.412E+02  -1.460E+02  -1.900E+03  -2.819E+02  +8.968E+03
  +1.85E+05  +2.97E+05  +1.55E+05  -2.421E+02  +7.928E+03  -5.412E+02  -1.460E+02  -1.900E+03  -2.819E+02  +8.968E+03
  +1.63E+05  +2.75E+05  +1.78E+05  -2.421E+02  +7.928E+03  -5.412E+02  -1.460E+02  -1.900E+03  -2.819E+02  +8.968E+03

element # = 479     type =4-n tetrahedron
 XX         YY         ZZ         SIGXX       SIGYY       SIGZZ       TAUXY       TAUYZ       TAUZX       SIGV
  +1.42E+05  +6.28E+05  +1.64E+05  -5.609E+02  +2.362E+03  -5.627E+02  +5.146E+02  -5.716E+02  +8.240E+01  +3.216E+03
  +1.19E+05  +6.30E+05  +1.85E+05  -5.609E+02  +2.362E+03  -5.627E+02  +5.146E+02  -5.716E+02  +8.240E+01  +3.216E+03
  +1.36E+05  +6.55E+05  +1.56E+05  -5.609E+02  +2.362E+03  -5.627E+02  +5.146E+02  -5.716E+02  +8.240E+01  +3.216E+03
  +1.42E+05  +6.40E+05  +1.85E+05  -5.609E+02  +2.362E+03  -5.627E+02  +5.146E+02  -5.716E+02  +8.240E+01  +3.216E+03

element # = 480     type =4-n tetrahedron
 XX         YY         ZZ         SIGXX       SIGYY       SIGZZ       TAUXY       TAUYZ       TAUZX       SIGV
  +1.42E+05  +7.32E+05  +1.50E+05  -9.021E+01  +8.459E+02  -7.050E+02  +5.645E+01  -7.424E+02  +7.637E+01  +1.874E+03
  +1.52E+05  +7.04E+05  +1.76E+05  -9.021E+01  +8.459E+02  -7.050E+02  +5.645E+01  -7.424E+02  +7.637E+01  +1.874E+03
  +1.74E+05  +7.25E+05  +1.54E+05  -9.021E+01  +8.459E+02  -7.050E+02  +5.645E+01  -7.424E+02  +7.637E+01  +1.874E+03
  +1.46E+05  +6.97E+05  +1.48E+05  -9.021E+01  +8.459E+02  -7.050E+02  +5.645E+01  -7.424E+02  +7.637E+01  +1.874E+03

element # = 481     type =4-n tetrahedron
 XX         YY         ZZ         SIGXX       SIGYY       SIGZZ       TAUXY       TAUYZ       TAUZX       SIGV
  +7.59E+04  +7.76E+05  +7.67E+04  +7.860E+01  -4.161E+02  -1.043E+02  +6.470E+01  -6.873E+02  +1.659E+02  +1.304E+03
  +6.27E+04  +7.62E+05  +1.03E+05  +7.860E+01  -4.161E+02  -1.043E+02  +6.470E+01  -6.873E+02  +1.659E+02  +1.304E+03
  +1.01E+05  +7.60E+05  +7.82E+04  +7.860E+01  -4.161E+02  -1.043E+02  +6.470E+01  -6.873E+02  +1.659E+02  +1.304E+03
  +6.77E+04  +7.49E+05  +8.46E+04  +7.860E+01  -4.161E+02  -1.043E+02  +6.470E+01  -6.873E+02  +1.659E+02  +1.304E+03

element # = 482     type =4-n tetrahedron
 XX         YY         ZZ         SIGXX       SIGYY       SIGZZ       TAUXY       TAUYZ       TAUZX       SIGV
  +1.83E+05  +3.26E+05  +4.42E+04  +1.071E+02  -6.287E+03  +1.291E+03  -1.906E+02  -2.563E+02  +4.338E+01  +7.083E+03
  +1.60E+05  +3.48E+05  +2.19E+04  +1.071E+02  -6.287E+03  +1.291E+03  -1.906E+02  -2.563E+02  +4.338E+01  +7.083E+03
  +1.83E+05  +3.48E+05  +4.42E+04  +1.071E+02  -6.287E+03  +1.291E+03  -1.906E+02  -2.563E+02  +4.338E+01  +7.083E+03
  +1.49E+05  +3.39E+05  +4.79E+04  +1.071E+02  -6.287E+03  +1.291E+03  -1.906E+02  -2.563E+02  +4.338E+01  +7.083E+03

element # = 483     type =4-n tetrahedron
 XX         YY         ZZ         SIGXX       SIGYY       SIGZZ       TAUXY       TAUYZ       TAUZX       SIGV
  +1.93E+05  +6.32E+05  +1.93E+05  +3.038E+02  +4.122E+03  -2.281E+02  +5.433E+01  -6.920E+02  -2.537E+02  +4.304E+03
  +1.93E+05  +6.43E+05  +1.71E+05  +3.038E+02  +4.122E+03  -2.281E+02  +5.433E+01  -6.920E+02  -2.537E+02  +4.304E+03
  +1.93E+05  +6.54E+05  +1.93E+05  +3.038E+02  +4.122E+03  -2.281E+02  +5.433E+01  -6.920E+02  -2.537E+02  +4.304E+03
  +1.71E+05  +6.43E+05  +1.93E+05  +3.038E+02  +4.122E+03  -2.281E+02  +5.433E+01  -6.920E+02  -2.537E+02  +4.304E+03

element # = 484     type =4-n tetrahedron
 XX         YY         ZZ         SIGXX       SIGYY       SIGZZ       TAUXY       TAUYZ       TAUZX       SIGV
  +7.88E+04  +5.75E+05  +5.36E+03  -6.613E+02  -6.231E+03  -2.666E+02  +3.829E+02  -1.727E+02  +3.116E+02  +5.847E+03
  +5.65E+04  +5.64E+05  +5.36E+03  -6.613E+02  -6.231E+03  -2.666E+02  +3.829E+02  -1.727E+02  +3.116E+02  +5.847E+03
  +5.65E+04  +5.85E+05  +5.36E+03  -6.613E+02  -6.231E+03  -2.666E+02  +3.829E+02  -1.727E+02  +3.116E+02  +5.847E+03
  +5.50E+04  +5.85E+05  +2.27E+04  -6.613E+02  -6.231E+03  -2.666E+02  +3.829E+02  -1.727E+02  +3.116E+02  +5.847E+03

element # = 485     type =4-n tetrahedron
 XX         YY         ZZ         SIGXX       SIGYY       SIGZZ       TAUXY       TAUYZ       TAUZX       SIGV
  +2.94E+04  +8.35E+05  +1.93E+05  +3.612E+01  +9.181E+02  -3.846E+02  -7.108E+01  -2.789E+02  +3.408E+01  +1.256E+03
  +6.94E+03  +8.35E+05  +1.71E+05  +3.612E+01  +9.181E+02  -3.846E+02  -7.108E+01  -2.789E+02  +3.408E+01  +1.256E+03
  +6.94E+03  +8.45E+05  +1.93E+05  +3.612E+01  +9.181E+02  -3.846E+02  -7.108E+01  -2.789E+02  +3.408E+01  +1.256E+03
  +6.94E+03  +8.23E+05  +1.93E+05  +3.612E+01  +9.181E+02  -3.846E+02  -7.108E+01  -2.789E+02  +3.408E+01  +1.256E+03

element # = 486     type =4-n tetrahedron
 XX         YY         ZZ         SIGXX       SIGYY       SIGZZ       TAUXY       TAUYZ       TAUZX       SIGV
  +1.42E+05  +1.75E+05  +9.08E+03  -4.722E+02  -2.124E+04  +4.477E+02  -9.971E+02  -1.973E+03  -1.381E+03  +2.172E+04
  +1.19E+05  +1.86E+05  +9.08E+03  -4.722E+02  -2.124E+04  +4.477E+02  -9.971E+02  -1.973E+03  -1.381E+03  +2.172E+04
  +1.42E+05  +1.97E+05  +9.08E+03  -4.722E+02  -2.124E+04  +4.477E+02  -9.971E+02  -1.973E+03  -1.381E+03  +2.172E+04
  +1.37E+05  +1.79E+05  +3.85E+04  -4.722E+02  -2.124E+04  +4.477E+02  -9.971E+02  -1.973E+03  -1.381E+03  +2.172E+04

element # = 487     type =4-n tetrahedron
 XX         YY         ZZ         SIGXX       SIGYY       SIGZZ       TAUXY       TAUYZ       TAUZX       SIGV
  +7.92E+04  +9.90E+05  +1.96E+04  +3.246E+01  -1.858E+01  -2.394E+01  +1.226E+00  -4.145E+01  -4.859E+00  +9.021E+01
  +6.66E+04  +9.90E+05  +4.27E+04  +3.246E+01  -1.858E+01  -2.394E+01  +1.226E+00  -4.145E+01  -4.859E+00  +9.021E+01
  +8.82E+04  +9.90E+05  +3.87E+04  +3.246E+01  -1.858E+01  -2.394E+01  +1.226E+00  -4.145E+01  -4.859E+00  +9.021E+01
  +8.05E+04  +9.58E+05  +4.07E+04  +3.246E+01  -1.858E+01  -2.394E+01  +1.226E+00  -4.145E+01  -4.859E+00  +9.021E+01

element # = 488     type =4-n tetrahedron
 XX         YY         ZZ         SIGXX       SIGYY       SIGZZ       TAUXY       TAUYZ       TAUZX       SIGV
  +2.50E+04  +9.20E+05  +4.61E+04  -1.887E+01  -1.641E+02  -1.320E+02  -2.820E+01  -2.491E+02  -1.897E+01  +4.550E+02
  +1.02E+04  +9.29E+05  +5.37E+04  -1.887E+01  -1.641E+02  -1.320E+02  -2.820E+01  -2.491E+02  -1.897E+01  +4.550E+02
  +2.83E+04  +9.15E+05  +6.64E+04  -1.887E+01  -1.641E+02  -1.320E+02  -2.820E+01  -2.491E+02  -1.897E+01  +4.550E+02
  +1.02E+04  +9.03E+05  +5.28E+04  -1.887E+01  -1.641E+02  -1.320E+02  -2.820E+01  -2.491E+02  -1.897E+01  +4.550E+02

element # = 489     type =4-n tetrahedron
 XX         YY         ZZ         SIGXX       SIGYY       SIGZZ       TAUXY       TAUYZ       TAUZX       SIGV
  +5.60E+04  +8.43E+05  +1.10E+04  +1.231E+02  -3.255E+02  +1.146E+02  +7.690E+01  -2.037E+02  +4.351E+01  +5.877E+02
  +7.83E+04  +8.55E+05  +1.10E+04  +1.231E+02  -3.255E+02  +1.146E+02  +7.690E+01  -2.037E+02  +4.351E+01  +5.877E+02
  +5.66E+04  +8.39E+05  +2.77E+04  +1.231E+02  -3.255E+02  +1.146E+02  +7.690E+01  -2.037E+02  +4.351E+01  +5.877E+02
  +5.18E+04  +8.60E+05  +2.98E+04  +1.231E+02  -3.255E+02  +1.146E+02  +7.690E+01  -2.037E+02  +4.351E+01  +5.877E+02

element # = 490     type =4-n tetrahedron
 XX         YY         ZZ         SIGXX       SIGYY       SIGZZ       TAUXY       TAUYZ       TAUZX       SIGV
  +1.73E+04  +5.77E+05  +1.08E+05  +4.389E+02  +1.370E+03  -2.425E+02  -6.262E+01  -1.749E+03  -7.643E+01  +3.342E+03
  +3.65E+04  +5.77E+05  +1.28E+05  +4.389E+02  +1.370E+03  -2.425E+02  -6.262E+01  -1.749E+03  -7.643E+01  +3.342E+03
  +3.46E+04  +5.98E+05  +1.18E+05  +4.389E+02  +1.370E+03  -2.425E+02  -6.262E+01  -1.749E+03  -7.643E+01  +3.342E+03
  +3.67E+04  +5.78E+05  +1.03E+05  +4.389E+02  +1.370E+03  -2.425E+02  -6.262E+01  -1.749E+03  -7.643E+01  +3.342E+03

element # = 491     type =4-n tetrahedron
 XX         YY         ZZ         SIGXX       SIGYY       SIGZZ       TAUXY       TAUYZ       TAUZX       SIGV
  +4.17E+04  +5.35E+05  +1.95E+05  +1.927E+02  +7.307E+03  -1.993E+02  -1.575E+02  -5.616E+02  -2.480E+02  +7.400E+03
  +1.93E+04  +5.24E+05  +1.95E+05  +1.927E+02  +7.307E+03  -1.993E+02  -1.575E+02  -5.616E+02  -2.480E+02  +7.400E+03
  +4.17E+04  +5.14E+05  +1.95E+05  +1.927E+02  +7.307E+03  -1.993E+02  -1.575E+02  -5.616E+02  -2.480E+02  +7.400E+03
  +3.71E+04  +5.26E+05  +1.80E+05  +1.927E+02  +7.307E+03  -1.993E+02  -1.575E+02  -5.616E+02  -2.480E+02  +7.400E+03

element # = 492     type =4-n tetrahedron
 XX         YY         ZZ         SIGXX       SIGYY       SIGZZ       TAUXY       TAUYZ       TAUZX       SIGV
  +8.41E+04  +5.21E+05  +1.82E+05  +5.400E+01  +4.473E+03  -1.034E+02  -6.552E+01  -2.792E+02  -2.599E+02  +4.550E+03
  +7.74E+04  +5.30E+05  +1.59E+05  +5.400E+01  +4.473E+03  -1.034E+02  -6.552E+01  -2.792E+02  -2.599E+02  +4.550E+03
  +5.72E+04  +5.22E+05  +1.67E+05  +5.400E+01  +4.473E+03  -1.034E+02  -6.552E+01  -2.792E+02  -2.599E+02  +4.550E+03
  +6.61E+04  +5.01E+05  +1.65E+05  +5.400E+01  +4.473E+03  -1.034E+02  -6.552E+01  -2.792E+02  -2.599E+02  +4.550E+03

element # = 493     type =4-n tetrahedron
 XX         YY         ZZ         SIGXX       SIGYY       SIGZZ       TAUXY       TAUYZ       TAUZX       SIGV
  +7.87E+04  +3.00E+05  +1.63E+05  -4.043E+02  +9.832E+03  -7.690E+02  +4.086E+02  -1.208E+03  +1.312E+02  +1.066E+04
  +6.14E+04  +3.12E+05  +1.87E+05  -4.043E+02  +9.832E+03  -7.690E+02  +4.086E+02  -1.208E+03  +1.312E+02  +1.066E+04
  +5.86E+04  +3.21E+05  +1.68E+05  -4.043E+02  +9.832E+03  -7.690E+02  +4.086E+02  -1.208E+03  +1.312E+02  +1.066E+04
  +8.37E+04  +3.22E+05  +1.87E+05  -4.043E+02  +9.832E+03  -7.690E+02  +4.086E+02  -1.208E+03  +1.312E+02  +1.066E+04

element # = 494     type =4-n tetrahedron
 XX         YY         ZZ         SIGXX       SIGYY       SIGZZ       TAUXY       TAUYZ       TAUZX       SIGV
  +3.51E+04  +3.72E+05  +1.26E+05  -7.806E+00  +3.000E+03  +1.099E+02  -5.550E+01  -1.002E+03  -6.764E+02  +3.620E+03
  +4.28E+04  +3.85E+05  +1.40E+05  -7.806E+00  +3.000E+03  +1.099E+02  -5.550E+01  -1.002E+03  -6.764E+02  +3.620E+03
  +1.87E+04  +3.81E+05  +1.26E+05  -7.806E+00  +3.000E+03  +1.099E+02  -5.550E+01  -1.002E+03  -6.764E+02  +3.620E+03
  +3.90E+04  +3.93E+05  +1.15E+05  -7.806E+00  +3.000E+03  +1.099E+02  -5.550E+01  -1.002E+03  -6.764E+02  +3.620E+03

element # = 495     type =4-n tetrahedron
 XX         YY         ZZ         SIGXX       SIGYY       SIGZZ       TAUXY       TAUYZ       TAUZX       SIGV
  +2.02E+04  +4.91E+05  +1.43E+05  -5.378E+02  +1.542E+03  +2.748E+02  -5.803E+01  -1.313E+03  -1.366E+02  +2.921E+03
  +3.63E+04  +4.70E+05  +1.28E+05  -5.378E+02  +1.542E+03  +2.748E+02  -5.803E+01  -1.313E+03  -1.366E+02  +2.921E+03
  +4.70E+04  +4.83E+05  +1.47E+05  -5.378E+02  +1.542E+03  +2.748E+02  -5.803E+01  -1.313E+03  -1.366E+02  +2.921E+03
  +4.25E+04  +4.97E+05  +1.29E+05  -5.378E+02  +1.542E+03  +2.748E+02  -5.803E+01  -1.313E+03  -1.366E+02  +2.921E+03

element # = 496     type =4-n tetrahedron
 XX         YY         ZZ         SIGXX       SIGYY       SIGZZ       TAUXY       TAUYZ       TAUZX       SIGV
  +1.14E+05  +5.01E+05  +1.60E+05  +1.785E+03  +9.472E+03  +6.773E+02  -3.993E+02  -1.091E+03  -4.864E+02  +8.579E+03
  +9.90E+04  +5.09E+05  +1.86E+05  +1.785E+03  +9.472E+03  +6.773E+02  -3.993E+02  -1.091E+03  -4.864E+02  +8.579E+03
  +9.90E+04  +4.87E+05  +1.86E+05  +1.785E+03  +9.472E+03  +6.773E+02  -3.993E+02  -1.091E+03  -4.864E+02  +8.579E+03
  +8.11E+04  +4.89E+05  +1.68E+05  +1.785E+03  +9.472E+03  +6.773E+02  -3.993E+02  -1.091E+03  -4.864E+02  +8.579E+03

element # = 497     type =4-n tetrahedron
 XX         YY         ZZ         SIGXX       SIGYY       SIGZZ       TAUXY       TAUYZ       TAUZX       SIGV
  +8.54E+04  +5.65E+05  +2.29E+04  +3.545E+01  -3.750E+03  +5.255E+02  -2.008E+02  -1.070E+03  +2.811E+02  +4.497E+03
  +6.54E+04  +5.44E+05  +4.31E+04  +3.545E+01  -3.750E+03  +5.255E+02  -2.008E+02  -1.070E+03  +2.811E+02  +4.497E+03
  +6.16E+04  +5.76E+05  +4.03E+04  +3.545E+01  -3.750E+03  +5.255E+02  -2.008E+02  -1.070E+03  +2.811E+02  +4.497E+03
  +8.22E+04  +5.55E+05  +5.95E+04  +3.545E+01  -3.750E+03  +5.255E+02  -2.008E+02  -1.070E+03  +2.811E+02  +4.497E+03

element # = 498     type =4-n tetrahedron
 XX         YY         ZZ         SIGXX       SIGYY       SIGZZ       TAUXY       TAUYZ       TAUZX       SIGV
  +2.03E+04  +5.75E+05  +5.36E+03  -2.528E+02  -6.104E+03  -2.525E+02  +2.297E+02  -1.854E+02  -3.536E+02  +5.905E+03
  +4.26E+04  +5.64E+05  +5.36E+03  -2.528E+02  -6.104E+03  -2.525E+02  +2.297E+02  -1.854E+02  -3.536E+02  +5.905E+03
  +4.12E+04  +5.85E+05  +2.27E+04  -2.528E+02  -6.104E+03  -2.525E+02  +2.297E+02  -1.854E+02  -3.536E+02  +5.905E+03
  +4.26E+04  +5.85E+05  +5.36E+03  -2.528E+02  -6.104E+03  -2.525E+02  +2.297E+02  -1.854E+02  -3.536E+02  +5.905E+03

element # = 499     type =4-n tetrahedron
 XX         YY         ZZ         SIGXX       SIGYY       SIGZZ       TAUXY       TAUYZ       TAUZX       SIGV
  +1.01E+05  +4.64E+05  +1.38E+05  -1.570E+03  +1.443E+03  -2.343E+03  +2.713E+02  -1.505E+03  -5.763E+02  +4.474E+03
  +9.95E+04  +4.77E+05  +1.75E+05  -1.570E+03  +1.443E+03  -2.343E+03  +2.713E+02  -1.505E+03  -5.763E+02  +4.474E+03
  +8.16E+04  +4.79E+05  +1.57E+05  -1.570E+03  +1.443E+03  -2.343E+03  +2.713E+02  -1.505E+03  -5.763E+02  +4.474E+03
  +1.14E+05  +4.90E+05  +1.49E+05  -1.570E+03  +1.443E+03  -2.343E+03  +2.713E+02  -1.505E+03  -5.763E+02  +4.474E+03

element # = 500     type =4-n tetrahedron
 XX         YY         ZZ         SIGXX       SIGYY       SIGZZ       TAUXY       TAUYZ       TAUZX       SIGV
  +5.55E+04  +5.35E+05  +1.95E+05  +7.512E+01  +7.083E+03  -8.272E+02  -1.907E+02  -5.516E+02  +4.106E+02  +7.601E+03
  +7.79E+04  +5.24E+05  +1.95E+05  +7.512E+01  +7.083E+03  -8.272E+02  -1.907E+02  -5.516E+02  +4.106E+02  +7.601E+03
  +5.09E+04  +5.26E+05  +1.80E+05  +7.512E+01  +7.083E+03  -8.272E+02  -1.907E+02  -5.516E+02  +4.106E+02  +7.601E+03
  +5.55E+04  +5.14E+05  +1.95E+05  +7.512E+01  +7.083E+03  -8.272E+02  -1.907E+02  -5.516E+02  +4.106E+02  +7.601E+03

element # = 501     type =4-n tetrahedron
 XX         YY         ZZ         SIGXX       SIGYY       SIGZZ       TAUXY       TAUYZ       TAUZX       SIGV
  +1.93E+05  +2.25E+05  +6.92E+03  -1.018E+03  -2.078E+04  -1.196E+03  -3.654E+02  -1.338E+03  -1.331E+03  +1.995E+04
  +1.93E+05  +2.03E+05  +6.92E+03  -1.018E+03  -2.078E+04  -1.196E+03  -3.654E+02  -1.338E+03  -1.331E+03  +1.995E+04
  +1.71E+05  +2.13E+05  +6.92E+03  -1.018E+03  -2.078E+04  -1.196E+03  -3.654E+02  -1.338E+03  -1.331E+03  +1.995E+04
  +1.93E+05  +2.13E+05  +2.93E+04  -1.018E+03  -2.078E+04  -1.196E+03  -3.654E+02  -1.338E+03  -1.331E+03  +1.995E+04

element # = 502     type =4-n tetrahedron
 XX         YY         ZZ         SIGXX       SIGYY       SIGZZ       TAUXY       TAUYZ       TAUZX       SIGV
  +5.11E+03  +1.36E+04  +1.48E+05  +2.428E+03  +1.477E+04  +5.158E+03  -5.267E+02  -4.220E+03  +5.094E+02  +1.345E+04
  +2.16E+04  +3.23E+04  +1.34E+05  +2.428E+03  +1.477E+04  +5.158E+03  -5.267E+02  -4.220E+03  +5.094E+02  +1.345E+04
  +5.11E+03  +3.91E+04  +1.43E+05  +2.428E+03  +1.477E+04  +5.158E+03  -5.267E+02  -4.220E+03  +5.094E+02  +1.345E+04
  +5.11E+03  +1.36E+04  +1.30E+05  +2.428E+03  +1.477E+04  +5.158E+03  -5.267E+02  -4.220E+03  +5.094E+02  +1.345E+04

element # = 503     type =4-n tetrahedron
 XX         YY         ZZ         SIGXX       SIGYY       SIGZZ       TAUXY       TAUYZ       TAUZX       SIGV
  +1.86E+05  +2.23E+05  +1.71E+05  +1.841E+03  +1.968E+04  +1.625E+03  +5.076E+02  -2.005E+03  +4.264E+01  +1.830E+04
  +1.64E+05  +2.45E+05  +1.93E+05  +1.841E+03  +1.968E+04  +1.625E+03  +5.076E+02  -2.005E+03  +4.264E+01  +1.830E+04
  +1.86E+05  +2.34E+05  +1.93E+05  +1.841E+03  +1.968E+04  +1.625E+03  +5.076E+02  -2.005E+03  +4.264E+01  +1.830E+04
  +1.64E+05  +2.23E+05  +1.93E+05  +1.841E+03  +1.968E+04  +1.625E+03  +5.076E+02  -2.005E+03  +4.264E+01  +1.830E+04

element # = 504     type =4-n tetrahedron
 XX         YY         ZZ         SIGXX       SIGYY       SIGZZ       TAUXY       TAUYZ       TAUZX       SIGV
  +1.42E+05  +1.63E+05  +1.47E+05  -1.024E+03  +8.720E+03  -8.964E+02  -1.594E+02  +8.715E+01  +1.242E+03  +9.922E+03
  +1.52E+05  +1.98E+05  +1.75E+05  -1.024E+03  +8.720E+03  -8.964E+02  -1.594E+02  +8.715E+01  +1.242E+03  +9.922E+03
  +1.49E+05  +2.07E+05  +1.43E+05  -1.024E+03  +8.720E+03  -8.964E+02  -1.594E+02  +8.715E+01  +1.242E+03  +9.922E+03
  +1.75E+05  +1.76E+05  +1.52E+05  -1.024E+03  +8.720E+03  -8.964E+02  -1.594E+02  +8.715E+01  +1.242E+03  +9.922E+03

element # = 505     type =4-n tetrahedron
 XX         YY         ZZ         SIGXX       SIGYY       SIGZZ       TAUXY       TAUYZ       TAUZX       SIGV
  +4.46E+04  +7.72E+05  +5.27E+03  +3.972E-01  -1.637E+03  +5.604E+01  +5.039E+01  -4.414E+02  -6.701E+01  +1.839E+03
  +4.92E+04  +7.57E+05  +2.23E+04  +3.972E-01  -1.637E+03  +5.604E+01  +5.039E+01  -4.414E+02  -6.701E+01  +1.839E+03
  +4.46E+04  +7.51E+05  +5.27E+03  +3.972E-01  -1.637E+03  +5.604E+01  +5.039E+01  -4.414E+02  -6.701E+01  +1.839E+03
  +2.22E+04  +7.61E+05  +5.27E+03  +3.972E-01  -1.637E+03  +5.604E+01  +5.039E+01  -4.414E+02  -6.701E+01  +1.839E+03

element # = 506     type =4-n tetrahedron
 XX         YY         ZZ         SIGXX       SIGYY       SIGZZ       TAUXY       TAUYZ       TAUZX       SIGV
  +1.14E+05  +7.80E+05  +8.82E+04  -1.279E+02  -3.504E+02  -4.094E+02  +1.462E+01  -6.003E+02  +7.184E+01  +1.078E+03
  +8.33E+04  +8.02E+05  +1.24E+05  -1.279E+02  -3.504E+02  -4.094E+02  +1.462E+01  -6.003E+02  +7.184E+01  +1.078E+03
  +8.83E+04  +7.95E+05  +8.67E+04  -1.279E+02  -3.504E+02  -4.094E+02  +1.462E+01  -6.003E+02  +7.184E+01  +1.078E+03
  +1.12E+05  +8.10E+05  +1.16E+05  -1.279E+02  -3.504E+02  -4.094E+02  +1.462E+01  -6.003E+02  +7.184E+01  +1.078E+03

element # = 507     type =4-n tetrahedron
 XX         YY         ZZ         SIGXX       SIGYY       SIGZZ       TAUXY       TAUYZ       TAUZX       SIGV
  +1.04E+05  +5.44E+05  +1.07E+05  +2.628E+02  +3.004E+03  +1.301E+02  -3.293E+01  -7.031E+02  -6.285E+01  +3.065E+03
  +1.22E+05  +5.25E+05  +1.34E+05  +2.628E+02  +3.004E+03  +1.301E+02  -3.293E+01  -7.031E+02  -6.285E+01  +3.065E+03
  +1.01E+05  +5.42E+05  +1.37E+05  +2.628E+02  +3.004E+03  +1.301E+02  -3.293E+01  -7.031E+02  -6.285E+01  +3.065E+03
  +1.27E+05  +5.49E+05  +1.34E+05  +2.628E+02  +3.004E+03  +1.301E+02  -3.293E+01  -7.031E+02  -6.285E+01  +3.065E+03

element # = 508     type =4-n tetrahedron
 XX         YY         ZZ         SIGXX       SIGYY       SIGZZ       TAUXY       TAUYZ       TAUZX       SIGV
  +1.85E+05  +5.53E+05  +1.63E+05  +4.230E+02  +5.281E+03  -4.769E+02  -6.755E+01  -1.016E+03  +2.029E+02  +5.658E+03
  +1.85E+05  +5.63E+05  +1.85E+05  +4.230E+02  +5.281E+03  -4.769E+02  -6.755E+01  -1.016E+03  +2.029E+02  +5.658E+03
  +1.63E+05  +5.53E+05  +1.85E+05  +4.230E+02  +5.281E+03  -4.769E+02  -6.755E+01  -1.016E+03  +2.029E+02  +5.658E+03
  +1.60E+05  +5.59E+05  +1.59E+05  +4.230E+02  +5.281E+03  -4.769E+02  -6.755E+01  -1.016E+03  +2.029E+02  +5.658E+03

element # = 509     type =4-n tetrahedron
 XX         YY         ZZ         SIGXX       SIGYY       SIGZZ       TAUXY       TAUYZ       TAUZX       SIGV
  +1.92E+05  +4.63E+05  +8.68E+04  +1.585E+03  +8.623E+02  +1.015E+03  +2.206E+02  -2.037E+03  -3.916E+02  +3.673E+03
  +1.66E+05  +4.53E+05  +6.63E+04  +1.585E+03  +8.623E+02  +1.015E+03  +2.206E+02  -2.037E+03  -3.916E+02  +3.673E+03
  +1.92E+05  +4.42E+05  +8.68E+04  +1.585E+03  +8.623E+02  +1.015E+03  +2.206E+02  -2.037E+03  -3.916E+02  +3.673E+03
  +1.92E+05  +4.52E+05  +6.44E+04  +1.585E+03  +8.623E+02  +1.015E+03  +2.206E+02  -2.037E+03  -3.916E+02  +3.673E+03

element # = 510     type =4-n tetrahedron
 XX         YY         ZZ         SIGXX       SIGYY       SIGZZ       TAUXY       TAUYZ       TAUZX       SIGV
  +9.66E+04  +4.54E+05  +1.46E+05  +9.850E+02  +9.347E+03  +1.051E+02  +7.888E+02  -1.470E+03  -6.890E+01  +9.296E+03
  +9.50E+04  +4.66E+05  +1.83E+05  +9.850E+02  +9.347E+03  +1.051E+02  +7.888E+02  -1.470E+03  -6.890E+01  +9.296E+03
  +9.50E+04  +4.45E+05  +1.83E+05  +9.850E+02  +9.347E+03  +1.051E+02  +7.888E+02  -1.470E+03  -6.890E+01  +9.296E+03
  +7.70E+04  +4.68E+05  +1.65E+05  +9.850E+02  +9.347E+03  +1.051E+02  +7.888E+02  -1.470E+03  -6.890E+01  +9.296E+03

element # = 511     type =4-n tetrahedron
 XX         YY         ZZ         SIGXX       SIGYY       SIGZZ       TAUXY       TAUYZ       TAUZX       SIGV
  +6.22E+04  +4.42E+05  +1.61E+05  -1.887E+02  +5.925E+03  -1.315E+03  -1.227E+02  -1.815E+03  -9.485E+01  +7.449E+03
  +8.88E+04  +4.48E+05  +1.41E+05  -1.887E+02  +5.925E+03  -1.315E+03  -1.227E+02  -1.815E+03  -9.485E+01  +7.449E+03
  +8.72E+04  +4.39E+05  +1.78E+05  -1.887E+02  +5.925E+03  -1.315E+03  -1.227E+02  -1.815E+03  -9.485E+01  +7.449E+03
  +6.93E+04  +4.62E+05  +1.60E+05  -1.887E+02  +5.925E+03  -1.315E+03  -1.227E+02  -1.815E+03  -9.485E+01  +7.449E+03

element # = 512     type =4-n tetrahedron
 XX         YY         ZZ         SIGXX       SIGYY       SIGZZ       TAUXY       TAUYZ       TAUZX       SIGV
  +1.92E+05  +6.25E+05  +5.73E+04  -4.527E+02  -3.143E+03  -7.010E+02  +1.017E+01  -1.395E+03  -2.776E+01  +3.532E+03
  +1.65E+05  +5.99E+05  +5.83E+04  -4.527E+02  -3.143E+03  -7.010E+02  +1.017E+01  -1.395E+03  -2.776E+01  +3.532E+03
  +1.92E+05  +6.14E+05  +7.96E+04  -4.527E+02  -3.143E+03  -7.010E+02  +1.017E+01  -1.395E+03  -2.776E+01  +3.532E+03
  +1.92E+05  +6.04E+05  +5.73E+04  -4.527E+02  -3.143E+03  -7.010E+02  +1.017E+01  -1.395E+03  -2.776E+01  +3.532E+03

element # = 513     type =4-n tetrahedron
 XX         YY         ZZ         SIGXX       SIGYY       SIGZZ       TAUXY       TAUYZ       TAUZX       SIGV
  +1.48E+05  +2.01E+05  +7.80E+04  -1.222E+03  -7.291E+03  -5.157E+02  +3.974E+02  -8.310E+02  +8.445E+02  +6.805E+03
  +1.75E+05  +2.30E+05  +9.33E+04  -1.222E+03  -7.291E+03  -5.157E+02  +3.974E+02  -8.310E+02  +8.445E+02  +6.805E+03
  +1.49E+05  +2.28E+05  +1.06E+05  -1.222E+03  -7.291E+03  -5.157E+02  +3.974E+02  -8.310E+02  +8.445E+02  +6.805E+03
  +1.48E+05  +2.41E+05  +7.42E+04  -1.222E+03  -7.291E+03  -5.157E+02  +3.974E+02  -8.310E+02  +8.445E+02  +6.805E+03

element # = 514     type =4-n tetrahedron
 XX         YY         ZZ         SIGXX       SIGYY       SIGZZ       TAUXY       TAUYZ       TAUZX       SIGV
  +5.84E+04  +7.72E+05  +5.27E+03  -4.305E+01  -1.677E+03  -3.257E+01  +9.219E+01  -4.529E+02  +2.372E+01  +1.825E+03
  +6.30E+04  +7.57E+05  +2.23E+04  -4.305E+01  -1.677E+03  -3.257E+01  +9.219E+01  -4.529E+02  +2.372E+01  +1.825E+03
  +8.07E+04  +7.62E+05  +5.27E+03  -4.305E+01  -1.677E+03  -3.257E+01  +9.219E+01  -4.529E+02  +2.372E+01  +1.825E+03
  +5.84E+04  +7.51E+05  +5.27E+03  -4.305E+01  -1.677E+03  -3.257E+01  +9.219E+01  -4.529E+02  +2.372E+01  +1.825E+03

element # = 515     type =4-n tetrahedron
 XX         YY         ZZ         SIGXX       SIGYY       SIGZZ       TAUXY       TAUYZ       TAUZX       SIGV
  +8.93E+04  +3.47E+04  +1.23E+05  +5.433E+03  +1.595E+04  +2.356E+03  -4.996E+02  -7.651E+02  +4.093E+02  +1.247E+04
  +9.03E+04  +1.38E+04  +1.48E+05  +5.433E+03  +1.595E+04  +2.356E+03  -4.996E+02  -7.651E+02  +4.093E+02  +1.247E+04
  +6.86E+04  +1.38E+04  +1.44E+05  +5.433E+03  +1.595E+04  +2.356E+03  -4.996E+02  -7.651E+02  +4.093E+02  +1.247E+04
  +8.13E+04  +3.73E+04  +1.48E+05  +5.433E+03  +1.595E+04  +2.356E+03  -4.996E+02  -7.651E+02  +4.093E+02  +1.247E+04

element # = 516     type =4-n tetrahedron
 XX         YY         ZZ         SIGXX       SIGYY       SIGZZ       TAUXY       TAUYZ       TAUZX       SIGV
  +4.36E+04  +7.36E+05  +1.86E+04  +7.217E+00  -1.333E+03  -2.146E+00  +7.862E+01  -3.277E+02  -6.072E+01  +1.462E+03
  +2.12E+04  +7.36E+05  +4.09E+04  +7.217E+00  -1.333E+03  -2.146E+00  +7.862E+01  -3.277E+02  -6.072E+01  +1.462E+03
  +4.83E+04  +7.42E+05  +3.56E+04  +7.217E+00  -1.333E+03  -2.146E+00  +7.862E+01  -3.277E+02  -6.072E+01  +1.462E+03
  +4.06E+04  +7.21E+05  +3.92E+04  +7.217E+00  -1.333E+03  -2.146E+00  +7.862E+01  -3.277E+02  -6.072E+01  +1.462E+03

element # = 517     type =4-n tetrahedron
 XX         YY         ZZ         SIGXX       SIGYY       SIGZZ       TAUXY       TAUYZ       TAUZX       SIGV
  +4.65E+04  +9.95E+05  +1.19E+04  -5.619E+00  -4.776E+01  -2.810E+01  -2.773E+00  -3.133E+01  +4.223E-01  +6.559E+01
  +5.17E+04  +9.95E+05  +3.50E+04  -5.619E+00  -4.776E+01  -2.810E+01  -2.773E+00  -3.133E+01  +4.223E-01  +6.559E+01
  +6.44E+04  +9.95E+05  +1.19E+04  -5.619E+00  -4.776E+01  -2.810E+01  -2.773E+00  -3.133E+01  +4.223E-01  +6.559E+01
  +4.45E+04  +9.80E+05  +2.74E+04  -5.619E+00  -4.776E+01  -2.810E+01  -2.773E+00  -3.133E+01  +4.223E-01  +6.559E+01

element # = 518     type =4-n tetrahedron
 XX         YY         ZZ         SIGXX       SIGYY       SIGZZ       TAUXY       TAUYZ       TAUZX       SIGV
  +3.77E+04  +7.44E+05  +1.22E+04  -9.558E+00  -1.512E+03  +4.041E+00  +4.934E+01  -3.986E+02  -2.226E+01  +1.663E+03
  +1.53E+04  +7.44E+05  +3.46E+04  -9.558E+00  -1.512E+03  +4.041E+00  +4.934E+01  -3.986E+02  -2.226E+01  +1.663E+03
  +1.53E+04  +7.54E+05  +1.22E+04  -9.558E+00  -1.512E+03  +4.041E+00  +4.934E+01  -3.986E+02  -2.226E+01  +1.663E+03
  +4.23E+04  +7.50E+05  +2.92E+04  -9.558E+00  -1.512E+03  +4.041E+00  +4.934E+01  -3.986E+02  -2.226E+01  +1.663E+03

element # = 519     type =4-n tetrahedron
 XX         YY         ZZ         SIGXX       SIGYY       SIGZZ       TAUXY       TAUYZ       TAUZX       SIGV
  +2.93E+04  +7.39E+05  +6.92E+03  -9.272E+01  -2.429E+03  -2.186E+02  +1.184E+02  -4.811E+02  +1.071E+02  +2.439E+03
  +6.92E+03  +7.39E+05  +2.93E+04  -9.272E+01  -2.429E+03  -2.186E+02  +1.184E+02  -4.811E+02  +1.071E+02  +2.439E+03
  +6.92E+03  +7.28E+05  +6.92E+03  -9.272E+01  -2.429E+03  -2.186E+02  +1.184E+02  -4.811E+02  +1.071E+02  +2.439E+03
  +6.92E+03  +7.49E+05  +6.92E+03  -9.272E+01  -2.429E+03  -2.186E+02  +1.184E+02  -4.811E+02  +1.071E+02  +2.439E+03

element # = 520     type =4-n tetrahedron
 XX         YY         ZZ         SIGXX       SIGYY       SIGZZ       TAUXY       TAUYZ       TAUZX       SIGV
  +9.21E+04  +9.76E+05  +9.16E+04  +3.101E+00  +8.143E+00  -2.109E+02  +3.205E+00  -1.264E+02  +1.195E+01  +3.088E+02
  +6.76E+04  +9.58E+05  +8.14E+04  +3.101E+00  +8.143E+00  -2.109E+02  +3.205E+00  -1.264E+02  +1.195E+01  +3.088E+02
  +9.88E+04  +9.51E+05  +9.84E+04  +3.101E+00  +8.143E+00  -2.109E+02  +3.205E+00  -1.264E+02  +1.195E+01  +3.088E+02
  +8.44E+04  +9.44E+05  +6.80E+04  +3.101E+00  +8.143E+00  -2.109E+02  +3.205E+00  -1.264E+02  +1.195E+01  +3.088E+02

element # = 521     type =4-n tetrahedron
 XX         YY         ZZ         SIGXX       SIGYY       SIGZZ       TAUXY       TAUYZ       TAUZX       SIGV
  +4.17E+04  +9.95E+05  +1.60E+05  -5.379E+00  +4.656E+01  -4.885E+02  +8.620E+00  -2.623E+01  -4.402E+00  +5.133E+02
  +3.77E+04  +9.78E+05  +1.69E+05  -5.379E+00  +4.656E+01  -4.885E+02  +8.620E+00  -2.623E+01  -4.402E+00  +5.133E+02
  +1.86E+04  +9.95E+05  +1.65E+05  -5.379E+00  +4.656E+01  -4.885E+02  +8.620E+00  -2.623E+01  -4.402E+00  +5.133E+02
  +3.65E+04  +9.95E+05  +1.83E+05  -5.379E+00  +4.656E+01  -4.885E+02  +8.620E+00  -2.623E+01  -4.402E+00  +5.133E+02

element # = 522     type =4-n tetrahedron
 XX         YY         ZZ         SIGXX       SIGYY       SIGZZ       TAUXY       TAUYZ       TAUZX       SIGV
  +5.06E+04  +1.81E+05  +1.52E+05  +1.325E+03  +1.343E+04  -2.562E+02  -1.139E+03  -1.990E+03  +4.706E+02  +1.359E+04
  +5.63E+04  +1.60E+05  +1.49E+05  +1.325E+03  +1.343E+04  -2.562E+02  -1.139E+03  -1.990E+03  +4.706E+02  +1.359E+04
  +7.24E+04  +1.88E+05  +1.45E+05  +1.325E+03  +1.343E+04  -2.562E+02  -1.139E+03  -1.990E+03  +4.706E+02  +1.359E+04
  +5.52E+04  +1.75E+05  +1.27E+05  +1.325E+03  +1.343E+04  -2.562E+02  -1.139E+03  -1.990E+03  +4.706E+02  +1.359E+04

element # = 523     type =4-n tetrahedron
 XX         YY         ZZ         SIGXX       SIGYY       SIGZZ       TAUXY       TAUYZ       TAUZX       SIGV
  +6.14E+04  +1.19E+05  +1.26E+05  -4.706E+02  +4.568E+03  +9.911E+02  -5.194E+02  -1.507E+03  +2.022E+03  +6.328E+03
  +6.16E+04  +1.53E+05  +1.20E+05  -4.706E+02  +4.568E+03  +9.911E+02  -5.194E+02  -1.507E+03  +2.022E+03  +6.328E+03
  +9.51E+04  +1.36E+05  +1.34E+05  -4.706E+02  +4.568E+03  +9.911E+02  -5.194E+02  -1.507E+03  +2.022E+03  +6.328E+03
  +6.27E+04  +1.39E+05  +1.42E+05  -4.706E+02  +4.568E+03  +9.911E+02  -5.194E+02  -1.507E+03  +2.022E+03  +6.328E+03

element # = 524     type =4-n tetrahedron
 XX         YY         ZZ         SIGXX       SIGYY       SIGZZ       TAUXY       TAUYZ       TAUZX       SIGV
  +6.18E+04  +7.80E+05  +1.44E+04  -2.293E+00  -1.197E+03  -8.702E+01  +1.111E+02  -4.105E+02  -8.055E+01  +1.377E+03
  +6.64E+04  +7.64E+05  +3.14E+04  -2.293E+00  -1.197E+03  -8.702E+01  +1.111E+02  -4.105E+02  -8.055E+01  +1.377E+03
  +7.28E+04  +7.82E+05  +4.38E+04  -2.293E+00  -1.197E+03  -8.702E+01  +1.111E+02  -4.105E+02  -8.055E+01  +1.377E+03
  +8.41E+04  +7.69E+05  +1.44E+04  -2.293E+00  -1.197E+03  -8.702E+01  +1.111E+02  -4.105E+02  -8.055E+01  +1.377E+03

element # = 525     type =4-n tetrahedron
 XX         YY         ZZ         SIGXX       SIGYY       SIGZZ       TAUXY       TAUYZ       TAUZX       SIGV
  +7.25E+04  +2.11E+05  +7.05E+04  +2.552E+03  +9.508E+02  +5.878E+02  -1.396E+03  -3.696E+03  +1.651E+03  +7.634E+03
  +5.18E+04  +1.99E+05  +6.45E+04  +2.552E+03  +9.508E+02  +5.878E+02  -1.396E+03  -3.696E+03  +1.651E+03  +7.634E+03
  +5.26E+04  +2.23E+05  +8.98E+04  +2.552E+03  +9.508E+02  +5.878E+02  -1.396E+03  -3.696E+03  +1.651E+03  +7.634E+03
  +5.48E+04  +1.92E+05  +9.13E+04  +2.552E+03  +9.508E+02  +5.878E+02  -1.396E+03  -3.696E+03  +1.651E+03  +7.634E+03

element # = 526     type =4-n tetrahedron
 XX         YY         ZZ         SIGXX       SIGYY       SIGZZ       TAUXY       TAUYZ       TAUZX       SIGV
  +6.73E+04  +7.88E+05  +9.09E+03  -6.771E+01  -1.393E+03  -2.278E+02  +1.152E+02  -3.056E+02  -4.445E+01  +1.377E+03
  +8.96E+04  +7.77E+05  +9.09E+03  -6.771E+01  -1.393E+03  -2.278E+02  +1.152E+02  -3.056E+02  -4.445E+01  +1.377E+03
  +7.83E+04  +7.90E+05  +3.85E+04  -6.771E+01  -1.393E+03  -2.278E+02  +1.152E+02  -3.056E+02  -4.445E+01  +1.377E+03
  +8.96E+04  +7.99E+05  +9.09E+03  -6.771E+01  -1.393E+03  -2.278E+02  +1.152E+02  -3.056E+02  -4.445E+01  +1.377E+03

element # = 527     type =4-n tetrahedron
 XX         YY         ZZ         SIGXX       SIGYY       SIGZZ       TAUXY       TAUYZ       TAUZX       SIGV
  +1.12E+05  +3.37E+05  +1.82E+05  -5.993E+02  +8.338E+03  -1.433E+03  +3.356E+02  -1.491E+03  +3.646E+02  +9.769E+03
  +1.35E+05  +3.47E+05  +1.82E+05  -5.993E+02  +8.338E+03  -1.433E+03  +3.356E+02  -1.491E+03  +3.646E+02  +9.769E+03
  +1.09E+05  +3.46E+05  +1.50E+05  -5.993E+02  +8.338E+03  -1.433E+03  +3.356E+02  -1.491E+03  +3.646E+02  +9.769E+03
  +1.32E+05  +3.28E+05  +1.55E+05  -5.993E+02  +8.338E+03  -1.433E+03  +3.356E+02  -1.491E+03  +3.646E+02  +9.769E+03

element # = 528     type =4-n tetrahedron
 XX         YY         ZZ         SIGXX       SIGYY       SIGZZ       TAUXY       TAUYZ       TAUZX       SIGV
  +2.83E+04  +9.89E+05  +1.03E+04  +1.591E+01  -4.055E+01  -3.696E+01  -4.806E+00  -3.668E+01  -2.053E+00  +8.435E+01
  +1.04E+04  +9.89E+05  +2.82E+04  +1.591E+01  -4.055E+01  -3.696E+01  -4.806E+00  -3.668E+01  -2.053E+00  +8.435E+01
  +2.63E+04  +9.73E+05  +2.58E+04  +1.591E+01  -4.055E+01  -3.696E+01  -4.806E+00  -3.668E+01  -2.053E+00  +8.435E+01
  +1.04E+04  +9.67E+05  +1.03E+04  +1.591E+01  -4.055E+01  -3.696E+01  -4.806E+00  -3.668E+01  -2.053E+00  +8.435E+01

element # = 529     type =4-n tetrahedron
 XX         YY         ZZ         SIGXX       SIGYY       SIGZZ       TAUXY       TAUYZ       TAUZX       SIGV
  +1.62E+04  +5.12E+05  +8.06E+04  -2.295E+02  -3.357E+03  -9.069E+02  +4.667E+01  -1.287E+03  +8.438E+00  +3.619E+03
  +4.40E+04  +4.88E+05  +6.42E+04  -2.295E+02  -3.357E+03  -9.069E+02  +4.667E+01  -1.287E+03  +8.438E+00  +3.619E+03
  +4.09E+04  +5.13E+05  +5.60E+04  -2.295E+02  -3.357E+03  -9.069E+02  +4.667E+01  -1.287E+03  +8.438E+00  +3.619E+03
  +1.62E+04  +5.01E+05  +5.83E+04  -2.295E+02  -3.357E+03  -9.069E+02  +4.667E+01  -1.287E+03  +8.438E+00  +3.619E+03

element # = 530     type =4-n tetrahedron
 XX         YY         ZZ         SIGXX       SIGYY       SIGZZ       TAUXY       TAUYZ       TAUZX       SIGV
  +1.50E+05  +5.42E+05  +1.25E+05  +8.025E+02  +3.397E+03  +5.152E+02  -2.085E+02  -1.757E+03  +3.767E+02  +4.169E+03
  +1.74E+05  +5.25E+05  +1.07E+05  +8.025E+02  +3.397E+03  +5.152E+02  -2.085E+02  -1.757E+03  +3.767E+02  +4.169E+03
  +1.47E+05  +5.20E+05  +9.02E+04  +8.025E+02  +3.397E+03  +5.152E+02  -2.085E+02  -1.757E+03  +3.767E+02  +4.169E+03
  +1.45E+05  +5.17E+05  +1.25E+05  +8.025E+02  +3.397E+03  +5.152E+02  -2.085E+02  -1.757E+03  +3.767E+02  +4.169E+03

element # = 531     type =4-n tetrahedron
 XX         YY         ZZ         SIGXX       SIGYY       SIGZZ       TAUXY       TAUYZ       TAUZX       SIGV
  +3.99E+04  +3.46E+05  +1.64E+05  +3.431E+01  +8.052E+03  -2.682E+02  -3.705E+01  -1.204E+03  -7.024E+02  +8.523E+03
  +4.44E+04  +3.71E+05  +1.64E+05  +3.431E+01  +8.052E+03  -2.682E+02  -3.705E+01  -1.204E+03  -7.024E+02  +8.523E+03
  +4.28E+04  +3.58E+05  +1.83E+05  +3.431E+01  +8.052E+03  -2.682E+02  -3.705E+01  -1.204E+03  -7.024E+02  +8.523E+03
  +2.04E+04  +3.58E+05  +1.66E+05  +3.431E+01  +8.052E+03  -2.682E+02  -3.705E+01  -1.204E+03  -7.024E+02  +8.523E+03

element # = 532     type =4-n tetrahedron
 XX         YY         ZZ         SIGXX       SIGYY       SIGZZ       TAUXY       TAUYZ       TAUZX       SIGV
  +4.24E+04  +1.64E+05  +1.83E+05  +9.640E+02  +1.431E+04  +2.445E+02  +1.382E+02  -2.061E+03  -1.169E+03  +1.432E+04
  +4.39E+04  +1.54E+05  +1.64E+05  +9.640E+02  +1.431E+04  +2.445E+02  +1.382E+02  -2.061E+03  -1.169E+03  +1.432E+04
  +3.81E+04  +1.74E+05  +1.67E+05  +9.640E+02  +1.431E+04  +2.445E+02  +1.382E+02  -2.061E+03  -1.169E+03  +1.432E+04
  +1.99E+04  +1.65E+05  +1.63E+05  +9.640E+02  +1.431E+04  +2.445E+02  +1.382E+02  -2.061E+03  -1.169E+03  +1.432E+04

element # = 533     type =4-n tetrahedron
 XX         YY         ZZ         SIGXX       SIGYY       SIGZZ       TAUXY       TAUYZ       TAUZX       SIGV
  +5.93E+03  +5.71E+05  +1.79E+05  +1.599E+02  +2.984E+03  -5.540E+02  +4.812E+01  -8.357E+02  +2.423E+02  +3.575E+03
  +5.93E+03  +5.60E+05  +1.56E+05  +1.599E+02  +2.984E+03  -5.540E+02  +4.812E+01  -8.357E+02  +2.423E+02  +3.575E+03
  +2.51E+04  +5.70E+05  +1.54E+05  +1.599E+02  +2.984E+03  -5.540E+02  +4.812E+01  -8.357E+02  +2.423E+02  +3.575E+03
  +5.93E+03  +5.82E+05  +1.56E+05  +1.599E+02  +2.984E+03  -5.540E+02  +4.812E+01  -8.357E+02  +2.423E+02  +3.575E+03

element # = 534     type =4-n tetrahedron
 XX         YY         ZZ         SIGXX       SIGYY       SIGZZ       TAUXY       TAUYZ       TAUZX       SIGV
  +7.98E+04  +4.40E+05  +1.89E+05  -3.209E+02  +6.892E+03  -5.546E+02  -6.905E+02  -6.945E+02  +1.735E+02  +7.532E+03
  +5.48E+04  +4.42E+05  +1.73E+05  -3.209E+02  +6.892E+03  -5.546E+02  -6.905E+02  -6.945E+02  +1.735E+02  +7.532E+03
  +6.19E+04  +4.63E+05  +1.71E+05  -3.209E+02  +6.892E+03  -5.546E+02  -6.905E+02  -6.945E+02  +1.735E+02  +7.532E+03
  +5.75E+04  +4.50E+05  +1.89E+05  -3.209E+02  +6.892E+03  -5.546E+02  -6.905E+02  -6.945E+02  +1.735E+02  +7.532E+03

element # = 535     type =4-n tetrahedron
 XX         YY         ZZ         SIGXX       SIGYY       SIGZZ       TAUXY       TAUYZ       TAUZX       SIGV
  +7.07E+04  +2.19E+05  +6.15E+04  -1.803E+03  -1.058E+04  -2.935E+03  -5.532E+02  -7.892E+02  +2.000E+03  +9.123E+03
  +4.73E+04  +2.26E+05  +5.30E+04  -1.803E+03  -1.058E+04  -2.935E+03  -5.532E+02  -7.892E+02  +2.000E+03  +9.123E+03
  +5.08E+04  +2.31E+05  +8.08E+04  -1.803E+03  -1.058E+04  -2.935E+03  -5.532E+02  -7.892E+02  +2.000E+03  +9.123E+03
  +5.00E+04  +2.07E+05  +5.55E+04  -1.803E+03  -1.058E+04  -2.935E+03  -5.532E+02  -7.892E+02  +2.000E+03  +9.123E+03

element # = 536     type =4-n tetrahedron
 XX         YY         ZZ         SIGXX       SIGYY       SIGZZ       TAUXY       TAUYZ       TAUZX       SIGV
  +4.53E+04  +3.85E+05  +1.75E+05  +6.399E+02  +1.282E+04  -1.409E+02  -3.097E+02  -7.855E+02  -5.485E+02  +1.271E+04
  +4.36E+04  +3.92E+05  +1.94E+05  +6.399E+02  +1.282E+04  -1.409E+02  -3.097E+02  -7.855E+02  -5.485E+02  +1.271E+04
  +4.36E+04  +3.71E+05  +1.94E+05  +6.399E+02  +1.282E+04  -1.409E+02  -3.097E+02  -7.855E+02  -5.485E+02  +1.271E+04
  +2.13E+04  +3.82E+05  +1.94E+05  +6.399E+02  +1.282E+04  -1.409E+02  -3.097E+02  -7.855E+02  -5.485E+02  +1.271E+04

element # = 537     type =4-n tetrahedron
 XX         YY         ZZ         SIGXX       SIGYY       SIGZZ       TAUXY       TAUYZ       TAUZX       SIGV
  +5.38E+04  +8.98E+05  +1.38E+05  -3.009E+01  +5.248E+01  -4.379E+02  +1.096E+01  -2.257E+02  -1.317E+00  +6.000E+02
  +4.81E+04  +9.32E+05  +1.36E+05  -3.009E+01  +5.248E+01  -4.379E+02  +1.096E+01  -2.257E+02  -1.317E+00  +6.000E+02
  +6.17E+04  +9.14E+05  +1.53E+05  -3.009E+01  +5.248E+01  -4.379E+02  +1.096E+01  -2.257E+02  -1.317E+00  +6.000E+02
  +4.27E+04  +9.16E+05  +1.53E+05  -3.009E+01  +5.248E+01  -4.379E+02  +1.096E+01  -2.257E+02  -1.317E+00  +6.000E+02

element # = 538     type =4-n tetrahedron
 XX         YY         ZZ         SIGXX       SIGYY       SIGZZ       TAUXY       TAUYZ       TAUZX       SIGV
  +3.76E+04  +6.91E+05  +3.26E+04  +6.153E+02  -1.431E+03  +2.875E+02  -3.076E+02  -4.020E+02  +1.542E+01  +2.096E+03
  +4.07E+04  +6.85E+05  +1.20E+04  +6.153E+02  -1.431E+03  +2.875E+02  -3.076E+02  -4.020E+02  +1.542E+01  +2.096E+03
  +1.83E+04  +6.74E+05  +1.20E+04  +6.153E+02  -1.431E+03  +2.875E+02  -3.076E+02  -4.020E+02  +1.542E+01  +2.096E+03
  +3.58E+04  +6.71E+05  +3.01E+04  +6.153E+02  -1.431E+03  +2.875E+02  -3.076E+02  -4.020E+02  +1.542E+01  +2.096E+03

element # = 539     type =4-n tetrahedron
 XX         YY         ZZ         SIGXX       SIGYY       SIGZZ       TAUXY       TAUYZ       TAUZX       SIGV
  +9.81E+04  +5.83E+05  +1.26E+04  -1.005E+03  -6.381E+03  -2.292E+02  +1.593E+02  -8.790E+02  +1.832E+01  +6.006E+03
  +1.16E+05  +5.89E+05  +3.61E+04  -1.005E+03  -6.381E+03  -2.292E+02  +1.593E+02  -8.790E+02  +1.832E+01  +6.006E+03
  +7.43E+04  +5.94E+05  +3.00E+04  -1.005E+03  -6.381E+03  -2.292E+02  +1.593E+02  -8.790E+02  +1.832E+01  +6.006E+03
  +9.81E+04  +6.05E+05  +1.26E+04  -1.005E+03  -6.381E+03  -2.292E+02  +1.593E+02  -8.790E+02  +1.832E+01  +6.006E+03

element # = 540     type =4-n tetrahedron
 XX         YY         ZZ         SIGXX       SIGYY       SIGZZ       TAUXY       TAUYZ       TAUZX       SIGV
  +3.01E+04  +1.15E+04  +9.42E+04  -2.627E+03  -4.264E+03  -1.272E+03  -1.741E+03  -7.007E+02  +6.507E+02  +4.309E+03
  +2.75E+04  +3.00E+04  +8.43E+04  -2.627E+03  -4.264E+03  -1.272E+03  -1.741E+03  -7.007E+02  +6.507E+02  +4.309E+03
  +1.10E+04  +3.05E+04  +9.42E+04  -2.627E+03  -4.264E+03  -1.272E+03  -1.741E+03  -7.007E+02  +6.507E+02  +4.309E+03
  +1.10E+04  +1.15E+04  +8.52E+04  -2.627E+03  -4.264E+03  -1.272E+03  -1.741E+03  -7.007E+02  +6.507E+02  +4.309E+03

element # = 541     type =4-n tetrahedron
 XX         YY         ZZ         SIGXX       SIGYY       SIGZZ       TAUXY       TAUYZ       TAUZX       SIGV
  +1.70E+05  +4.72E+05  +1.15E+05  +4.129E+02  +3.635E+03  -1.354E+03  -2.129E+02  -2.504E+03  -2.355E+02  +6.190E+03
  +1.48E+05  +4.59E+05  +1.39E+05  +4.129E+02  +3.635E+03  -1.354E+03  -2.129E+02  -2.504E+03  -2.355E+02  +6.190E+03
  +1.27E+05  +4.60E+05  +1.23E+05  +4.129E+02  +3.635E+03  -1.354E+03  -2.129E+02  -2.504E+03  -2.355E+02  +6.190E+03
  +1.41E+05  +4.85E+05  +1.34E+05  +4.129E+02  +3.635E+03  -1.354E+03  -2.129E+02  -2.504E+03  -2.355E+02  +6.190E+03

element # = 542     type =4-n tetrahedron
 XX         YY         ZZ         SIGXX       SIGYY       SIGZZ       TAUXY       TAUYZ       TAUZX       SIGV
  +1.42E+05  +4.62E+05  +7.49E+03  -1.324E+02  -8.954E+03  -4.487E+02  -2.336E+02  -1.574E+03  -9.274E+02  +9.236E+03
  +1.20E+05  +4.73E+05  +7.49E+03  -1.324E+02  -8.954E+03  -4.487E+02  -2.336E+02  -1.574E+03  -9.274E+02  +9.236E+03
  +1.42E+05  +4.84E+05  +7.49E+03  -1.324E+02  -8.954E+03  -4.487E+02  -2.336E+02  -1.574E+03  -9.274E+02  +9.236E+03
  +1.38E+05  +4.63E+05  +3.17E+04  -1.324E+02  -8.954E+03  -4.487E+02  -2.336E+02  -1.574E+03  -9.274E+02  +9.236E+03

element # = 543     type =4-n tetrahedron
 XX         YY         ZZ         SIGXX       SIGYY       SIGZZ       TAUXY       TAUYZ       TAUZX       SIGV
  +1.37E+05  +4.71E+05  +4.05E+04  +1.103E+03  -3.422E+03  +4.764E+02  -5.631E+02  -6.334E+02  -2.244E+02  +4.510E+03
  +1.18E+05  +4.81E+05  +1.63E+04  +1.103E+03  -3.422E+03  +4.764E+02  -5.631E+02  -6.334E+02  -2.244E+02  +4.510E+03
  +1.40E+05  +4.92E+05  +1.63E+04  +1.103E+03  -3.422E+03  +4.764E+02  -5.631E+02  -6.334E+02  -2.244E+02  +4.510E+03
  +1.35E+05  +4.98E+05  +4.46E+04  +1.103E+03  -3.422E+03  +4.764E+02  -5.631E+02  -6.334E+02  -2.244E+02  +4.510E+03

element # = 544     type =4-n tetrahedron
 XX         YY         ZZ         SIGXX       SIGYY       SIGZZ       TAUXY       TAUYZ       TAUZX       SIGV
  +8.00E+04  +5.24E+05  +6.24E+03  -6.662E+02  -8.380E+03  -6.382E+02  -2.827E+02  -8.162E+02  +2.062E+02  +7.880E+03
  +5.76E+04  +5.13E+05  +6.24E+03  -6.662E+02  -8.380E+03  -6.382E+02  -2.827E+02  -8.162E+02  +2.062E+02  +7.880E+03
  +5.76E+04  +5.35E+05  +6.24E+03  -6.662E+02  -8.380E+03  -6.382E+02  -2.827E+02  -8.162E+02  +2.062E+02  +7.880E+03
  +5.99E+04  +5.24E+05  +2.64E+04  -6.662E+02  -8.380E+03  -6.382E+02  -2.827E+02  -8.162E+02  +2.062E+02  +7.880E+03

element # = 545     type =4-n tetrahedron
 XX         YY         ZZ         SIGXX       SIGYY       SIGZZ       TAUXY       TAUYZ       TAUZX       SIGV
  +4.29E+04  +3.67E+05  +8.07E+04  -1.050E+02  -2.095E+03  -6.824E+02  +9.624E+01  -9.546E+02  -6.080E+02  +2.649E+03
  +4.30E+04  +3.87E+05  +6.12E+04  -1.050E+02  -2.095E+03  -6.824E+02  +9.624E+01  -9.546E+02  -6.080E+02  +2.649E+03
  +4.05E+04  +3.92E+05  +8.77E+04  -1.050E+02  -2.095E+03  -6.824E+02  +9.624E+01  -9.546E+02  -6.080E+02  +2.649E+03
  +2.03E+04  +3.76E+05  +8.07E+04  -1.050E+02  -2.095E+03  -6.824E+02  +9.624E+01  -9.546E+02  -6.080E+02  +2.649E+03

element # = 546     type =4-n tetrahedron
 XX         YY         ZZ         SIGXX       SIGYY       SIGZZ       TAUXY       TAUYZ       TAUZX       SIGV
  +1.39E+05  +4.14E+05  +1.66E+04  +1.744E+03  -4.797E+03  +8.937E+02  +1.136E+03  -1.713E+03  -4.209E+02  +7.152E+03
  +1.16E+05  +4.25E+05  +1.66E+04  +1.744E+03  -4.797E+03  +8.937E+02  +1.136E+03  -1.713E+03  -4.209E+02  +7.152E+03
  +1.35E+05  +4.36E+05  +4.08E+04  +1.744E+03  -4.797E+03  +8.937E+02  +1.136E+03  -1.713E+03  -4.209E+02  +7.152E+03
  +1.28E+05  +4.11E+05  +4.61E+04  +1.744E+03  -4.797E+03  +8.937E+02  +1.136E+03  -1.713E+03  -4.209E+02  +7.152E+03

element # = 547     type =4-n tetrahedron
 XX         YY         ZZ         SIGXX       SIGYY       SIGZZ       TAUXY       TAUYZ       TAUZX       SIGV
  +7.55E+04  +3.32E+04  +1.10E+05  +1.211E+03  +6.229E+03  +2.078E+03  -1.083E+03  -3.349E+03  +4.116E+02  +7.698E+03
  +5.08E+04  +1.22E+04  +1.10E+05  +1.211E+03  +6.229E+03  +2.078E+03  -1.083E+03  -3.349E+03  +4.116E+02  +7.698E+03
  +4.82E+04  +3.09E+04  +1.23E+05  +1.211E+03  +6.229E+03  +2.078E+03  -1.083E+03  -3.349E+03  +4.116E+02  +7.698E+03
  +5.48E+04  +1.22E+04  +1.32E+05  +1.211E+03  +6.229E+03  +2.078E+03  -1.083E+03  -3.349E+03  +4.116E+02  +7.698E+03

element # = 548     type =4-n tetrahedron
 XX         YY         ZZ         SIGXX       SIGYY       SIGZZ       TAUXY       TAUYZ       TAUZX       SIGV
  +3.59E+04  +3.30E+05  +5.63E+04  -7.912E+02  -6.101E+03  -1.942E+02  +2.182E+02  -2.331E+03  +1.353E+02  +6.945E+03
  +3.64E+04  +3.43E+05  +7.30E+04  -7.912E+02  -6.101E+03  -1.942E+02  +2.182E+02  -2.331E+03  +1.353E+02  +6.945E+03
  +1.38E+04  +3.31E+05  +7.11E+04  -7.912E+02  -6.101E+03  -1.942E+02  +2.182E+02  -2.331E+03  +1.353E+02  +6.945E+03
  +1.38E+04  +3.44E+05  +5.38E+04  -7.912E+02  -6.101E+03  -1.942E+02  +2.182E+02  -2.331E+03  +1.353E+02  +6.945E+03

element # = 549     type =4-n tetrahedron
 XX         YY         ZZ         SIGXX       SIGYY       SIGZZ       TAUXY       TAUYZ       TAUZX       SIGV
  +3.37E+04  +5.58E+04  +9.36E+04  +1.162E+03  +4.920E+03  +1.049E+03  +1.636E+03  -5.166E+03  -2.270E+02  +1.014E+04
  +3.37E+04  +5.61E+04  +1.16E+05  +1.162E+03  +4.920E+03  +1.049E+03  +1.636E+03  -5.166E+03  -2.270E+02  +1.014E+04
  +1.72E+04  +7.81E+04  +1.04E+05  +1.162E+03  +4.920E+03  +1.049E+03  +1.636E+03  -5.166E+03  -2.270E+02  +1.014E+04
  +3.98E+04  +8.07E+04  +1.13E+05  +1.162E+03  +4.920E+03  +1.049E+03  +1.636E+03  -5.166E+03  -2.270E+02  +1.014E+04

element # = 550     type =4-n tetrahedron
 XX         YY         ZZ         SIGXX       SIGYY       SIGZZ       TAUXY       TAUYZ       TAUZX       SIGV
  +5.10E+03  +1.36E+04  +5.25E+04  -1.382E+03  -1.362E+04  -4.501E+03  +1.120E+02  -3.960E+03  +6.888E+02  +1.303E+04
  +2.16E+04  +3.20E+04  +6.94E+04  -1.382E+03  -1.362E+04  -4.501E+03  +1.120E+02  -3.960E+03  +6.888E+02  +1.303E+04
  +5.10E+03  +1.36E+04  +7.04E+04  -1.382E+03  -1.362E+04  -4.501E+03  +1.120E+02  -3.960E+03  +6.888E+02  +1.303E+04
  +5.10E+03  +3.91E+04  +5.80E+04  -1.382E+03  -1.362E+04  -4.501E+03  +1.120E+02  -3.960E+03  +6.888E+02  +1.303E+04

element # = 551     type =4-n tetrahedron
 XX         YY         ZZ         SIGXX       SIGYY       SIGZZ       TAUXY       TAUYZ       TAUZX       SIGV
  +8.96E+04  +5.71E+05  +7.01E+04  +8.992E+01  -1.523E+03  -1.087E+03  +1.396E+02  -1.259E+03  +2.328E+02  +2.658E+03
  +1.10E+05  +5.87E+05  +5.69E+04  +8.992E+01  -1.523E+03  -1.087E+03  +1.396E+02  -1.259E+03  +2.328E+02  +2.658E+03
  +7.89E+04  +6.07E+05  +6.44E+04  +8.992E+01  -1.523E+03  -1.087E+03  +1.396E+02  -1.259E+03  +2.328E+02  +2.658E+03
  +6.90E+04  +5.92E+05  +5.08E+04  +8.992E+01  -1.523E+03  -1.087E+03  +1.396E+02  -1.259E+03  +2.328E+02  +2.658E+03

element # = 552     type =4-n tetrahedron
 XX         YY         ZZ         SIGXX       SIGYY       SIGZZ       TAUXY       TAUYZ       TAUZX       SIGV
  +3.47E+04  +2.41E+04  +7.76E+04  -3.544E+03  -8.269E+03  -3.544E+03  -9.437E+02  -3.343E+03  +0.000E+00  +7.651E+03
  +3.73E+04  +5.69E+03  +8.75E+04  -3.544E+03  -8.269E+03  -3.544E+03  -9.437E+02  -3.343E+03  +0.000E+00  +7.651E+03
  +4.12E+04  +5.69E+03  +6.59E+04  -3.544E+03  -8.269E+03  -3.544E+03  -9.437E+02  -3.343E+03  +0.000E+00  +7.651E+03
  +1.81E+04  +5.69E+03  +7.86E+04  -3.544E+03  -8.269E+03  -3.544E+03  -9.437E+02  -3.343E+03  +0.000E+00  +7.651E+03

element # = 553     type =4-n tetrahedron
 XX         YY         ZZ         SIGXX       SIGYY       SIGZZ       TAUXY       TAUYZ       TAUZX       SIGV
  +1.43E+04  +3.99E+05  +1.69E+05  +5.340E+02  +9.675E+03  -3.025E+02  -4.695E+02  -9.742E+02  +1.050E+02  +9.769E+03
  +3.67E+04  +3.99E+05  +1.88E+05  +5.340E+02  +9.675E+03  -3.025E+02  -4.695E+02  -9.742E+02  +1.050E+02  +9.769E+03
  +3.84E+04  +3.91E+05  +1.69E+05  +5.340E+02  +9.675E+03  -3.025E+02  -4.695E+02  -9.742E+02  +1.050E+02  +9.769E+03
  +1.43E+04  +3.88E+05  +1.88E+05  +5.340E+02  +9.675E+03  -3.025E+02  -4.695E+02  -9.742E+02  +1.050E+02  +9.769E+03

element # = 554     type =4-n tetrahedron
 XX         YY         ZZ         SIGXX       SIGYY       SIGZZ       TAUXY       TAUYZ       TAUZX       SIGV
  +2.58E+04  +4.41E+05  +1.72E+05  +4.005E+02  +8.894E+03  -2.270E+01  -1.525E+02  -7.546E+02  +7.378E+01  +8.815E+03
  +6.09E+03  +4.49E+05  +1.66E+05  +4.005E+02  +8.894E+03  -2.270E+01  -1.525E+02  -7.546E+02  +7.378E+01  +8.815E+03
  +6.09E+03  +4.60E+05  +1.88E+05  +4.005E+02  +8.894E+03  -2.270E+01  -1.525E+02  -7.546E+02  +7.378E+01  +8.815E+03
  +6.09E+03  +4.39E+05  +1.88E+05  +4.005E+02  +8.894E+03  -2.270E+01  -1.525E+02  -7.546E+02  +7.378E+01  +8.815E+03

element # = 555     type =4-n tetrahedron
 XX         YY         ZZ         SIGXX       SIGYY       SIGZZ       TAUXY       TAUYZ       TAUZX       SIGV
  +2.58E+04  +4.32E+05  +1.66E+05  -5.491E+02  +5.298E+03  -8.808E+02  +1.158E+02  -8.635E+02  +4.458E+02  +6.254E+03
  +6.09E+03  +4.18E+05  +1.63E+05  -5.491E+02  +5.298E+03  -8.808E+02  +1.158E+02  -8.635E+02  +4.458E+02  +6.254E+03
  +6.09E+03  +4.39E+05  +1.61E+05  -5.491E+02  +5.298E+03  -8.808E+02  +1.158E+02  -8.635E+02  +4.458E+02  +6.254E+03
  +6.09E+03  +4.29E+05  +1.82E+05  -5.491E+02  +5.298E+03  -8.808E+02  +1.158E+02  -8.635E+02  +4.458E+02  +6.254E+03

element # = 556     type =4-n tetrahedron
 XX         YY         ZZ         SIGXX       SIGYY       SIGZZ       TAUXY       TAUYZ       TAUZX       SIGV
  +7.85E+04  +1.88E+05  +6.44E+03  -1.854E+03  -2.268E+04  -5.766E+02  +3.655E+02  -1.828E+03  +1.314E+03  +2.185E+04
  +5.62E+04  +1.78E+05  +6.44E+03  -1.854E+03  -2.268E+04  -5.766E+02  +3.655E+02  -1.828E+03  +1.314E+03  +2.185E+04
  +5.62E+04  +1.99E+05  +6.44E+03  -1.854E+03  -2.268E+04  -5.766E+02  +3.655E+02  -1.828E+03  +1.314E+03  +2.185E+04
  +5.36E+04  +1.89E+05  +2.73E+04  -1.854E+03  -2.268E+04  -5.766E+02  +3.655E+02  -1.828E+03  +1.314E+03  +2.185E+04

element # = 557     type =4-n tetrahedron
 XX         YY         ZZ         SIGXX       SIGYY       SIGZZ       TAUXY       TAUYZ       TAUZX       SIGV
  +1.27E+05  +3.94E+04  +1.70E+05  +8.901E+03  +2.764E+04  +8.277E+03  -4.363E+03  -5.139E+03  +2.544E+03  +2.278E+04
  +1.08E+05  +1.36E+04  +1.69E+05  +8.901E+03  +2.764E+04  +8.277E+03  -4.363E+03  -5.139E+03  +2.544E+03  +2.278E+04
  +1.08E+05  +3.20E+04  +1.88E+05  +8.901E+03  +2.764E+04  +8.277E+03  -4.363E+03  -5.139E+03  +2.544E+03  +2.278E+04
  +1.17E+05  +1.36E+04  +1.88E+05  +8.901E+03  +2.764E+04  +8.277E+03  -4.363E+03  -5.139E+03  +2.544E+03  +2.278E+04

element # = 558     type =4-n tetrahedron
 XX         YY         ZZ         SIGXX       SIGYY       SIGZZ       TAUXY       TAUYZ       TAUZX       SIGV
  +9.57E+04  +1.76E+05  +1.78E+05  -2.931E+02  +1.029E+04  -1.546E+03  +7.186E+02  -7.516E+02  +1.768E+02  +1.141E+04
  +7.49E+04  +1.55E+05  +1.59E+05  -2.931E+02  +1.029E+04  -1.546E+03  +7.186E+02  -7.516E+02  +1.768E+02  +1.141E+04
  +1.07E+05  +1.52E+05  +1.50E+05  -2.931E+02  +1.029E+04  -1.546E+03  +7.186E+02  -7.516E+02  +1.768E+02  +1.141E+04
  +9.10E+04  +1.82E+05  +1.54E+05  -2.931E+02  +1.029E+04  -1.546E+03  +7.186E+02  -7.516E+02  +1.768E+02  +1.141E+04

element # = 559     type =4-n tetrahedron
 XX         YY         ZZ         SIGXX       SIGYY       SIGZZ       TAUXY       TAUYZ       TAUZX       SIGV
  +2.04E+04  +4.06E+05  +1.64E+05  +3.477E+01  +5.840E+03  -7.374E+02  +4.518E+01  -1.363E+03  -5.312E+02  +6.724E+03
  +4.28E+04  +4.06E+05  +1.83E+05  +3.477E+01  +5.840E+03  -7.374E+02  +4.518E+01  -1.363E+03  -5.312E+02  +6.724E+03
  +4.01E+04  +4.20E+05  +1.66E+05  +3.477E+01  +5.840E+03  -7.374E+02  +4.518E+01  -1.363E+03  -5.312E+02  +6.724E+03
  +4.45E+04  +3.99E+05  +1.64E+05  +3.477E+01  +5.840E+03  -7.374E+02  +4.518E+01  -1.363E+03  -5.312E+02  +6.724E+03

element # = 560     type =4-n tetrahedron
 XX         YY         ZZ         SIGXX       SIGYY       SIGZZ       TAUXY       TAUYZ       TAUZX       SIGV
  +3.70E+04  +4.29E+05  +1.47E+05  -1.439E+03  +8.603E+02  -1.335E+03  +1.007E+03  -1.855E+03  -5.336E+01  +4.294E+03
  +1.73E+04  +4.15E+05  +1.45E+05  -1.439E+03  +8.603E+02  -1.335E+03  +1.007E+03  -1.855E+03  -5.336E+01  +4.294E+03
  +3.76E+04  +4.16E+05  +1.19E+05  -1.439E+03  +8.603E+02  -1.335E+03  +1.007E+03  -1.855E+03  -5.336E+01  +4.294E+03
  +3.34E+04  +4.36E+05  +1.27E+05  -1.439E+03  +8.603E+02  -1.335E+03  +1.007E+03  -1.855E+03  -5.336E+01  +4.294E+03

element # = 561     type =4-n tetrahedron
 XX         YY         ZZ         SIGXX       SIGYY       SIGZZ       TAUXY       TAUYZ       TAUZX       SIGV
  +1.98E+04  +5.71E+05  +1.92E+05  +1.877E+02  +5.555E+03  -2.987E+02  -7.093E+01  -6.207E+02  -2.484E+02  +5.746E+03
  +4.21E+04  +5.82E+05  +1.92E+05  +1.877E+02  +5.555E+03  -2.987E+02  -7.093E+01  -6.207E+02  -2.484E+02  +5.746E+03
  +3.89E+04  +5.70E+05  +1.68E+05  +1.877E+02  +5.555E+03  -2.987E+02  -7.093E+01  -6.207E+02  -2.484E+02  +5.746E+03
  +4.21E+04  +5.61E+05  +1.92E+05  +1.877E+02  +5.555E+03  -2.987E+02  -7.093E+01  -6.207E+02  -2.484E+02  +5.746E+03

element # = 562     type =4-n tetrahedron
 XX         YY         ZZ         SIGXX       SIGYY       SIGZZ       TAUXY       TAUYZ       TAUZX       SIGV
  +1.30E+04  +4.12E+05  +1.70E+05  +6.552E+01  +8.140E+03  -6.995E+02  -2.964E+02  -8.394E+02  -1.086E+01  +8.622E+03
  +3.54E+04  +4.12E+05  +1.89E+05  +6.552E+01  +8.140E+03  -6.995E+02  -2.964E+02  -8.394E+02  -1.086E+01  +8.622E+03
  +1.30E+04  +4.23E+05  +1.89E+05  +6.552E+01  +8.140E+03  -6.995E+02  -2.964E+02  -8.394E+02  -1.086E+01  +8.622E+03
  +3.27E+04  +4.25E+05  +1.72E+05  +6.552E+01  +8.140E+03  -6.995E+02  -2.964E+02  -8.394E+02  -1.086E+01  +8.622E+03

element # = 563     type =4-n tetrahedron
 XX         YY         ZZ         SIGXX       SIGYY       SIGZZ       TAUXY       TAUYZ       TAUZX       SIGV
  +1.17E+05  +6.57E+05  +1.46E+05  -3.339E+02  +1.176E+03  -9.843E+02  -1.097E+02  -1.175E+03  -7.426E+01  +2.807E+03
  +1.02E+05  +6.29E+05  +1.39E+05  -3.339E+02  +1.176E+03  -9.843E+02  -1.097E+02  -1.175E+03  -7.426E+01  +2.807E+03
  +8.16E+04  +6.50E+05  +1.56E+05  -3.339E+02  +1.176E+03  -9.843E+02  -1.097E+02  -1.175E+03  -7.426E+01  +2.807E+03
  +1.00E+05  +6.32E+05  +1.74E+05  -3.339E+02  +1.176E+03  -9.843E+02  -1.097E+02  -1.175E+03  -7.426E+01  +2.807E+03

element # = 564     type =4-n tetrahedron
 XX         YY         ZZ         SIGXX       SIGYY       SIGZZ       TAUXY       TAUYZ       TAUZX       SIGV
  +8.76E+04  +9.85E+05  +1.12E+05  -3.505E+01  +7.911E+00  -3.575E+02  +6.894E+00  -6.682E+01  -3.253E+00  +3.650E+02
  +6.25E+04  +9.64E+05  +1.24E+05  -3.505E+01  +7.911E+00  -3.575E+02  +6.894E+00  -6.682E+01  -3.253E+00  +3.650E+02
  +6.60E+04  +9.85E+05  +1.34E+05  -3.505E+01  +7.911E+00  -3.575E+02  +6.894E+00  -6.682E+01  -3.253E+00  +3.650E+02
  +9.43E+04  +9.60E+05  +1.19E+05  -3.505E+01  +7.911E+00  -3.575E+02  +6.894E+00  -6.682E+01  -3.253E+00  +3.650E+02

element # = 565     type =4-n tetrahedron
 XX         YY         ZZ         SIGXX       SIGYY       SIGZZ       TAUXY       TAUYZ       TAUZX       SIGV
  +6.91E+03  +4.05E+05  +1.75E+05  +4.817E+02  +1.203E+04  -3.691E+02  -3.063E+02  -9.723E+02  +6.875E+02  +1.218E+04
  +2.93E+04  +4.05E+05  +1.94E+05  +4.817E+02  +1.203E+04  -3.691E+02  -3.063E+02  -9.723E+02  +6.875E+02  +1.218E+04
  +6.91E+03  +3.94E+05  +1.94E+05  +4.817E+02  +1.203E+04  -3.691E+02  -3.063E+02  -9.723E+02  +6.875E+02  +1.218E+04
  +6.91E+03  +4.15E+05  +1.94E+05  +4.817E+02  +1.203E+04  -3.691E+02  -3.063E+02  -9.723E+02  +6.875E+02  +1.218E+04

element # = 566     type =4-n tetrahedron
 XX         YY         ZZ         SIGXX       SIGYY       SIGZZ       TAUXY       TAUYZ       TAUZX       SIGV
  +1.55E+05  +5.14E+05  +1.85E+05  +6.663E+02  +6.790E+03  -5.023E+01  -3.552E+02  -1.034E+03  +3.506E+01  +6.782E+03
  +1.77E+05  +5.35E+05  +1.63E+05  +6.663E+02  +6.790E+03  -5.023E+01  -3.552E+02  -1.034E+03  +3.506E+01  +6.782E+03
  +1.55E+05  +5.35E+05  +1.85E+05  +6.663E+02  +6.790E+03  -5.023E+01  -3.552E+02  -1.034E+03  +3.506E+01  +6.782E+03
  +1.47E+05  +5.16E+05  +1.59E+05  +6.663E+02  +6.790E+03  -5.023E+01  -3.552E+02  -1.034E+03  +3.506E+01  +6.782E+03

element # = 567     type =4-n tetrahedron
 XX         YY         ZZ         SIGXX       SIGYY       SIGZZ       TAUXY       TAUYZ       TAUZX       SIGV
  +1.66E+05  +8.76E+05  +1.57E+05  -2.945E+01  +2.890E+02  -5.017E+02  +1.352E+01  -2.674E+02  -4.665E+01  +8.345E+02
  +1.92E+05  +8.76E+05  +1.57E+05  -2.945E+01  +2.890E+02  -5.017E+02  +1.352E+01  -2.674E+02  -4.665E+01  +8.345E+02
  +1.92E+05  +8.53E+05  +1.57E+05  -2.945E+01  +2.890E+02  -5.017E+02  +1.352E+01  -2.674E+02  -4.665E+01  +8.345E+02
  +1.92E+05  +8.63E+05  +1.79E+05  -2.945E+01  +2.890E+02  -5.017E+02  +1.352E+01  -2.674E+02  -4.665E+01  +8.345E+02

element # = 568     type =4-n tetrahedron
 XX         YY         ZZ         SIGXX       SIGYY       SIGZZ       TAUXY       TAUYZ       TAUZX       SIGV
  +1.94E+04  +9.28E+05  +2.79E+04  +6.141E+00  -1.738E+02  -9.828E+01  +2.861E+01  -1.270E+02  -2.784E-01  +2.745E+02
  +4.58E+03  +9.37E+05  +3.56E+04  +6.141E+00  -1.738E+02  -9.828E+01  +2.861E+01  -1.270E+02  -2.784E-01  +2.745E+02
  +4.58E+03  +9.19E+05  +1.21E+04  +6.141E+00  -1.738E+02  -9.828E+01  +2.861E+01  -1.270E+02  -2.784E-01  +2.745E+02
  +4.58E+03  +9.41E+05  +1.21E+04  +6.141E+00  -1.738E+02  -9.828E+01  +2.861E+01  -1.270E+02  -2.784E-01  +2.745E+02

element # = 569     type =4-n tetrahedron
 XX         YY         ZZ         SIGXX       SIGYY       SIGZZ       TAUXY       TAUYZ       TAUZX       SIGV
  +5.42E+03  +8.70E+05  +1.89E+05  -7.160E+00  +4.177E+02  -4.036E+02  -6.488E+01  -1.951E+02  -3.556E+00  +7.956E+02
  +5.42E+03  +8.83E+05  +1.66E+05  -7.160E+00  +4.177E+02  -4.036E+02  -6.488E+01  -1.951E+02  -3.556E+00  +7.956E+02
  +2.30E+04  +8.75E+05  +1.75E+05  -7.160E+00  +4.177E+02  -4.036E+02  -6.488E+01  -1.951E+02  -3.556E+00  +7.956E+02
  +5.42E+03  +8.91E+05  +1.89E+05  -7.160E+00  +4.177E+02  -4.036E+02  -6.488E+01  -1.951E+02  -3.556E+00  +7.956E+02

element # = 570     type =4-n tetrahedron
 XX         YY         ZZ         SIGXX       SIGYY       SIGZZ       TAUXY       TAUYZ       TAUZX       SIGV
  +9.82E+03  +8.91E+05  +1.61E+05  -1.613E+01  +2.317E+02  -4.802E+02  -5.802E+01  -1.535E+02  -7.511E+00  +6.876E+02
  +2.74E+04  +8.84E+05  +1.70E+05  -1.613E+01  +2.317E+02  -4.802E+02  -5.802E+01  -1.535E+02  -7.511E+00  +6.876E+02
  +9.82E+03  +8.99E+05  +1.84E+05  -1.613E+01  +2.317E+02  -4.802E+02  -5.802E+01  -1.535E+02  -7.511E+00  +6.876E+02
  +2.40E+04  +9.05E+05  +1.67E+05  -1.613E+01  +2.317E+02  -4.802E+02  -5.802E+01  -1.535E+02  -7.511E+00  +6.876E+02

element # = 571     type =4-n tetrahedron
 XX         YY         ZZ         SIGXX       SIGYY       SIGZZ       TAUXY       TAUYZ       TAUZX       SIGV
  +3.84E+04  +3.78E+05  +1.70E+05  +4.348E+02  +1.087E+04  -4.268E+02  -2.688E+02  -1.132E+03  -1.756E+02  +1.108E+04
  +3.67E+04  +3.65E+05  +1.89E+05  +4.348E+02  +1.087E+04  -4.268E+02  -2.688E+02  -1.132E+03  -1.756E+02  +1.108E+04
  +1.43E+04  +3.65E+05  +1.72E+05  +4.348E+02  +1.087E+04  -4.268E+02  -2.688E+02  -1.132E+03  -1.756E+02  +1.108E+04
  +1.43E+04  +3.75E+05  +1.89E+05  +4.348E+02  +1.087E+04  -4.268E+02  -2.688E+02  -1.132E+03  -1.756E+02  +1.108E+04

element # = 572     type =4-n tetrahedron
 XX         YY         ZZ         SIGXX       SIGYY       SIGZZ       TAUXY       TAUYZ       TAUZX       SIGV
  +1.01E+05  +4.65E+05  +1.62E+04  -2.504E+03  -1.061E+04  -1.493E+03  -2.213E+02  -4.888E+02  +1.028E+02  +8.704E+03
  +1.01E+05  +4.44E+05  +1.62E+04  -2.504E+03  -1.061E+04  -1.493E+03  -2.213E+02  -4.888E+02  +1.028E+02  +8.704E+03
  +8.37E+04  +4.62E+05  +4.46E+04  -2.504E+03  -1.061E+04  -1.493E+03  -2.213E+02  -4.888E+02  +1.028E+02  +8.704E+03
  +1.19E+05  +4.55E+05  +4.05E+04  -2.504E+03  -1.061E+04  -1.493E+03  -2.213E+02  -4.888E+02  +1.028E+02  +8.704E+03

element # = 573     type =4-n tetrahedron
 XX         YY         ZZ         SIGXX       SIGYY       SIGZZ       TAUXY       TAUYZ       TAUZX       SIGV
  +1.93E+05  +7.97E+05  +1.93E+05  -1.025E+00  +1.549E+03  -4.312E+02  +1.376E+02  -3.113E+02  -5.005E+01  +1.900E+03
  +1.71E+05  +7.87E+05  +1.93E+05  -1.025E+00  +1.549E+03  -4.312E+02  +1.376E+02  -3.113E+02  -5.005E+01  +1.900E+03
  +1.93E+05  +7.75E+05  +1.93E+05  -1.025E+00  +1.549E+03  -4.312E+02  +1.376E+02  -3.113E+02  -5.005E+01  +1.900E+03
  +1.93E+05  +7.87E+05  +1.71E+05  -1.025E+00  +1.549E+03  -4.312E+02  +1.376E+02  -3.113E+02  -5.005E+01  +1.900E+03

element # = 574     type =4-n tetrahedron
 XX         YY         ZZ         SIGXX       SIGYY       SIGZZ       TAUXY       TAUYZ       TAUZX       SIGV
  +1.78E+05  +2.96E+05  +3.72E+04  -8.042E+02  -1.663E+04  -5.528E+02  +1.654E+03  -2.308E+03  -3.522E+02  +1.670E+04
  +1.55E+05  +2.74E+05  +1.48E+04  -8.042E+02  -1.663E+04  -5.528E+02  +1.654E+03  -2.308E+03  -3.522E+02  +1.670E+04
  +1.55E+05  +2.96E+05  +1.48E+04  -8.042E+02  -1.663E+04  -5.528E+02  +1.654E+03  -2.308E+03  -3.522E+02  +1.670E+04
  +1.51E+05  +2.74E+05  +4.05E+04  -8.042E+02  -1.663E+04  -5.528E+02  +1.654E+03  -2.308E+03  -3.522E+02  +1.670E+04

element # = 575     type =4-n tetrahedron
 XX         YY         ZZ         SIGXX       SIGYY       SIGZZ       TAUXY       TAUYZ       TAUZX       SIGV
  +1.93E+05  +8.69E+05  +3.65E+04  +6.089E+01  -3.619E+02  +9.377E+01  -1.016E+02  -2.511E+02  +4.060E+00  +6.434E+02
  +1.71E+05  +8.46E+05  +1.39E+04  +6.089E+01  -3.619E+02  +9.377E+01  -1.016E+02  -2.511E+02  +4.060E+00  +6.434E+02
  +1.93E+05  +8.46E+05  +3.64E+04  +6.089E+01  -3.619E+02  +9.377E+01  -1.016E+02  -2.511E+02  +4.060E+00  +6.434E+02
  +1.93E+05  +8.55E+05  +1.39E+04  +6.089E+01  -3.619E+02  +9.377E+01  -1.016E+02  -2.511E+02  +4.060E+00  +6.434E+02

element # = 576     type =4-n tetrahedron
 XX         YY         ZZ         SIGXX       SIGYY       SIGZZ       TAUXY       TAUYZ       TAUZX       SIGV
  +1.86E+04  +5.97E+05  +1.48E+05  +2.094E+02  +2.830E+03  -2.185E+01  +3.703E+01  -6.125E+02  -2.008E+02  +2.963E+03
  +4.24E+04  +6.06E+05  +1.54E+05  +2.094E+02  +2.830E+03  -2.185E+01  +3.703E+01  -6.125E+02  -2.008E+02  +2.963E+03
  +3.59E+04  +6.07E+05  +1.35E+05  +2.094E+02  +2.830E+03  -2.185E+01  +3.703E+01  -6.125E+02  -2.008E+02  +2.963E+03
  +3.78E+04  +5.86E+05  +1.46E+05  +2.094E+02  +2.830E+03  -2.185E+01  +3.703E+01  -6.125E+02  -2.008E+02  +2.963E+03

element # = 577     type =4-n tetrahedron
 XX         YY         ZZ         SIGXX       SIGYY       SIGZZ       TAUXY       TAUYZ       TAUZX       SIGV
  +4.47E+04  +5.44E+05  +5.09E+04  -1.452E+02  -3.847E+03  -7.541E+01  +1.462E+02  -1.032E+03  -3.677E+02  +4.199E+03
  +2.01E+04  +5.54E+05  +5.32E+04  -1.452E+02  -3.847E+03  -7.541E+01  +1.462E+02  -1.032E+03  -3.677E+02  +4.199E+03
  +4.10E+04  +5.75E+05  +4.81E+04  -1.452E+02  -3.847E+03  -7.541E+01  +1.462E+02  -1.032E+03  -3.677E+02  +4.199E+03
  +3.95E+04  +5.65E+05  +7.02E+04  -1.452E+02  -3.847E+03  -7.541E+01  +1.462E+02  -1.032E+03  -3.677E+02  +4.199E+03

element # = 578     type =4-n tetrahedron
 XX         YY         ZZ         SIGXX       SIGYY       SIGZZ       TAUXY       TAUYZ       TAUZX       SIGV
  +1.83E+05  +1.46E+05  +1.55E+05  -7.914E+02  +1.165E+04  -4.134E+03  +2.614E+02  -2.483E+03  -6.892E+02  +1.508E+04
  +1.60E+05  +1.23E+05  +1.77E+05  -7.914E+02  +1.165E+04  -4.134E+03  +2.614E+02  -2.483E+03  -6.892E+02  +1.508E+04
  +1.83E+05  +1.23E+05  +1.55E+05  -7.914E+02  +1.165E+04  -4.134E+03  +2.614E+02  -2.483E+03  -6.892E+02  +1.508E+04
  +1.50E+05  +1.33E+05  +1.50E+05  -7.914E+02  +1.165E+04  -4.134E+03  +2.614E+02  -2.483E+03  -6.892E+02  +1.508E+04

element # = 579     type =4-n tetrahedron
 XX         YY         ZZ         SIGXX       SIGYY       SIGZZ       TAUXY       TAUYZ       TAUZX       SIGV
  +5.57E+04  +1.77E+05  +1.95E+05  +5.810E+02  +2.036E+04  -1.283E+03  -5.251E+02  -1.337E+03  +1.344E+03  +2.105E+04
  +5.15E+04  +1.87E+05  +1.79E+05  +5.810E+02  +2.036E+04  -1.283E+03  -5.251E+02  -1.337E+03  +1.344E+03  +2.105E+04
  +7.80E+04  +1.88E+05  +1.95E+05  +5.810E+02  +2.036E+04  -1.283E+03  -5.251E+02  -1.337E+03  +1.344E+03  +2.105E+04
  +5.57E+04  +1.99E+05  +1.95E+05  +5.810E+02  +2.036E+04  -1.283E+03  -5.251E+02  -1.337E+03  +1.344E+03  +2.105E+04

element # = 580     type =4-n tetrahedron
 XX         YY         ZZ         SIGXX       SIGYY       SIGZZ       TAUXY       TAUYZ       TAUZX       SIGV
  +6.99E+03  +2.83E+05  +1.71E+04  -2.501E+02  -1.062E+04  -1.207E+02  +1.851E+02  -1.005E+03  +4.462E+02  +1.061E+04
  +6.99E+03  +2.92E+05  +3.47E+04  -2.501E+02  -1.062E+04  -1.207E+02  +1.851E+02  -1.005E+03  +4.462E+02  +1.061E+04
  +2.96E+04  +2.77E+05  +3.83E+04  -2.501E+02  -1.062E+04  -1.207E+02  +1.851E+02  -1.005E+03  +4.462E+02  +1.061E+04
  +6.99E+03  +2.72E+05  +3.35E+04  -2.501E+02  -1.062E+04  -1.207E+02  +1.851E+02  -1.005E+03  +4.462E+02  +1.061E+04

element # = 581     type =4-n tetrahedron
 XX         YY         ZZ         SIGXX       SIGYY       SIGZZ       TAUXY       TAUYZ       TAUZX       SIGV
  +8.39E+04  +1.83E+05  +1.82E+05  +2.717E+02  +1.298E+04  +2.026E+02  -2.772E+02  +2.066E+02  -5.126E+02  +1.279E+04
  +7.92E+04  +1.90E+05  +1.58E+05  +2.717E+02  +1.298E+04  +2.026E+02  -2.772E+02  +2.066E+02  -5.126E+02  +1.279E+04
  +5.74E+04  +1.83E+05  +1.65E+05  +2.717E+02  +1.298E+04  +2.026E+02  -2.772E+02  +2.066E+02  -5.126E+02  +1.279E+04
  +6.31E+04  +1.62E+05  +1.62E+05  +2.717E+02  +1.298E+04  +2.026E+02  -2.772E+02  +2.066E+02  -5.126E+02  +1.279E+04

element # = 582     type =4-n tetrahedron
 XX         YY         ZZ         SIGXX       SIGYY       SIGZZ       TAUXY       TAUYZ       TAUZX       SIGV
  +1.71E+05  +2.13E+05  +1.93E+05  +1.369E+03  +2.017E+04  +4.639E+02  +5.258E+02  -1.301E+03  -5.116E+02  +1.945E+04
  +1.93E+05  +2.03E+05  +1.93E+05  +1.369E+03  +2.017E+04  +4.639E+02  +5.258E+02  -1.301E+03  -5.116E+02  +1.945E+04
  +1.93E+05  +2.25E+05  +1.93E+05  +1.369E+03  +2.017E+04  +4.639E+02  +5.258E+02  -1.301E+03  -5.116E+02  +1.945E+04
  +1.93E+05  +2.13E+05  +1.71E+05  +1.369E+03  +2.017E+04  +4.639E+02  +5.258E+02  -1.301E+03  -5.116E+02  +1.945E+04

element # = 583     type =4-n tetrahedron
 XX         YY         ZZ         SIGXX       SIGYY       SIGZZ       TAUXY       TAUYZ       TAUZX       SIGV
  +1.52E+05  +4.15E+04  +1.71E+05  +8.430E+03  +3.474E+04  +5.289E+03  +3.143E+03  -2.957E+03  -4.324E+03  +2.995E+04
  +1.79E+05  +1.57E+04  +1.71E+05  +8.430E+03  +3.474E+04  +5.289E+03  +3.143E+03  -2.957E+03  -4.324E+03  +2.995E+04
  +1.61E+05  +1.57E+04  +1.89E+05  +8.430E+03  +3.474E+04  +5.289E+03  +3.143E+03  -2.957E+03  -4.324E+03  +2.995E+04
  +1.56E+05  +4.07E+04  +1.89E+05  +8.430E+03  +3.474E+04  +5.289E+03  +3.143E+03  -2.957E+03  -4.324E+03  +2.995E+04

element # = 584     type =4-n tetrahedron
 XX         YY         ZZ         SIGXX       SIGYY       SIGZZ       TAUXY       TAUYZ       TAUZX       SIGV
  +1.57E+05  +1.91E+05  +8.39E+04  -1.959E+02  +8.643E+00  +1.203E+03  +2.396E+02  -2.853E+03  -4.484E+02  +5.186E+03
  +1.84E+05  +2.20E+05  +9.92E+04  -1.959E+02  +8.643E+00  +1.203E+03  +2.396E+02  -2.853E+03  -4.484E+02  +5.186E+03
  +1.84E+05  +1.99E+05  +9.92E+04  -1.959E+02  +8.643E+00  +1.203E+03  +2.396E+02  -2.853E+03  -4.484E+02  +5.186E+03
  +1.58E+05  +2.18E+05  +1.12E+05  -1.959E+02  +8.643E+00  +1.203E+03  +2.396E+02  -2.853E+03  -4.484E+02  +5.186E+03

element # = 585     type =4-n tetrahedron
 XX         YY         ZZ         SIGXX       SIGYY       SIGZZ       TAUXY       TAUYZ       TAUZX       SIGV
  +1.78E+05  +8.71E+04  +1.94E+05  +2.303E+03  +2.956E+04  -4.777E+02  -5.642E+02  -4.332E+03  +7.315E+02  +2.975E+04
  +1.51E+05  +7.03E+04  +1.76E+05  +2.303E+03  +2.956E+04  -4.777E+02  -5.642E+02  -4.332E+03  +7.315E+02  +2.975E+04
  +1.55E+05  +9.52E+04  +1.94E+05  +2.303E+03  +2.956E+04  -4.777E+02  -5.642E+02  -4.332E+03  +7.315E+02  +2.975E+04
  +1.54E+05  +6.95E+04  +1.94E+05  +2.303E+03  +2.956E+04  -4.777E+02  -5.642E+02  -4.332E+03  +7.315E+02  +2.975E+04

element # = 586     type =4-n tetrahedron
 XX         YY         ZZ         SIGXX       SIGYY       SIGZZ       TAUXY       TAUYZ       TAUZX       SIGV
  +8.76E+04  +4.67E+05  +1.94E+05  +3.928E+02  +9.248E+03  +3.688E+02  -5.659E+02  -1.122E+02  -2.279E+00  +8.923E+03
  +8.76E+04  +4.45E+05  +1.94E+05  +3.928E+02  +9.248E+03  +3.688E+02  -5.659E+02  -1.122E+02  -2.279E+00  +8.923E+03
  +6.96E+04  +4.69E+05  +1.77E+05  +3.928E+02  +9.248E+03  +3.688E+02  -5.659E+02  -1.122E+02  -2.279E+00  +8.923E+03
  +6.52E+04  +4.56E+05  +1.94E+05  +3.928E+02  +9.248E+03  +3.688E+02  -5.659E+02  -1.122E+02  -2.279E+00  +8.923E+03

element # = 587     type =4-n tetrahedron
 XX         YY         ZZ         SIGXX       SIGYY       SIGZZ       TAUXY       TAUYZ       TAUZX       SIGV
  +5.88E+04  +9.29E+04  +1.02E+05  +2.836E+02  -4.950E+03  +5.130E+02  -1.788E+03  -2.577E+03  -2.779E+02  +7.641E+03
  +6.83E+04  +1.08E+05  +7.35E+04  +2.836E+02  -4.950E+03  +5.130E+02  -1.788E+03  -2.577E+03  -2.779E+02  +7.641E+03
  +5.47E+04  +8.74E+04  +7.95E+04  +2.836E+02  -4.950E+03  +5.130E+02  -1.788E+03  -2.577E+03  -2.779E+02  +7.641E+03
  +7.99E+04  +7.06E+04  +9.28E+04  +2.836E+02  -4.950E+03  +5.130E+02  -1.788E+03  -2.577E+03  -2.779E+02  +7.641E+03

element # = 588     type =4-n tetrahedron
 XX         YY         ZZ         SIGXX       SIGYY       SIGZZ       TAUXY       TAUYZ       TAUZX       SIGV
  +5.48E+04  +1.22E+05  +7.35E+04  -1.383E+02  -5.121E+03  +2.759E+02  -1.728E+03  -3.407E+03  +9.860E+02  +8.589E+03
  +4.12E+04  +1.01E+05  +7.95E+04  -1.383E+02  -5.121E+03  +2.759E+02  -1.728E+03  -3.407E+03  +9.860E+02  +8.589E+03
  +2.26E+04  +1.30E+05  +9.30E+04  -1.383E+02  -5.121E+03  +2.759E+02  -1.728E+03  -3.407E+03  +9.860E+02  +8.589E+03
  +4.52E+04  +1.07E+05  +1.02E+05  -1.383E+02  -5.121E+03  +2.759E+02  -1.728E+03  -3.407E+03  +9.860E+02  +8.589E+03

element # = 589     type =4-n tetrahedron
 XX         YY         ZZ         SIGXX       SIGYY       SIGZZ       TAUXY       TAUYZ       TAUZX       SIGV
  +1.55E+05  +2.48E+05  +1.49E+04  -3.044E+03  -1.994E+04  -2.043E+03  -1.824E+03  -5.292E+02  -3.631E+02  +1.773E+04
  +1.78E+05  +2.26E+05  +3.73E+04  -3.044E+03  -1.994E+04  -2.043E+03  -1.824E+03  -5.292E+02  -3.631E+02  +1.773E+04
  +1.55E+05  +2.26E+05  +1.49E+04  -3.044E+03  -1.994E+04  -2.043E+03  -1.824E+03  -5.292E+02  -3.631E+02  +1.773E+04
  +1.51E+05  +2.47E+05  +4.05E+04  -3.044E+03  -1.994E+04  -2.043E+03  -1.824E+03  -5.292E+02  -3.631E+02  +1.773E+04

element # = 590     type =4-n tetrahedron
 XX         YY         ZZ         SIGXX       SIGYY       SIGZZ       TAUXY       TAUYZ       TAUZX       SIGV
  +1.44E+04  +1.21E+05  +1.40E+05  -8.294E+02  +6.999E+03  +4.546E+01  +4.933E+02  -2.278E+03  +2.136E+02  +8.464E+03
  +3.83E+04  +1.32E+05  +1.43E+05  -8.294E+02  +6.999E+03  +4.546E+01  +4.933E+02  -2.278E+03  +2.136E+02  +8.464E+03
  +1.44E+04  +1.35E+05  +1.18E+05  -8.294E+02  +6.999E+03  +4.546E+01  +4.933E+02  -2.278E+03  +2.136E+02  +8.464E+03
  +3.70E+04  +1.13E+05  +1.27E+05  -8.294E+02  +6.999E+03  +4.546E+01  +4.933E+02  -2.278E+03  +2.136E+02  +8.464E+03

element # = 591     type =4-n tetrahedron
 XX         YY         ZZ         SIGXX       SIGYY       SIGZZ       TAUXY       TAUYZ       TAUZX       SIGV
  +5.30E+03  +4.04E+04  +1.83E+05  +2.142E+03  +1.660E+04  +2.138E+02  +1.229E+03  +1.419E+03  +2.441E+03  +1.640E+04
  +5.30E+03  +4.46E+04  +1.60E+05  +2.142E+03  +1.660E+04  +2.138E+02  +1.229E+03  +1.419E+03  +2.441E+03  +1.640E+04
  +5.30E+03  +1.91E+04  +1.65E+05  +2.142E+03  +1.660E+04  +2.138E+02  +1.229E+03  +1.419E+03  +2.441E+03  +1.640E+04
  +2.24E+04  +3.43E+04  +1.69E+05  +2.142E+03  +1.660E+04  +2.138E+02  +1.229E+03  +1.419E+03  +2.441E+03  +1.640E+04

element # = 592     type =4-n tetrahedron
 XX         YY         ZZ         SIGXX       SIGYY       SIGZZ       TAUXY       TAUYZ       TAUZX       SIGV
  +8.39E+04  +5.61E+05  +1.50E+05  +7.878E+01  +2.477E+03  -3.014E+02  -3.660E+01  -6.602E+02  -2.402E+02  +2.880E+03
  +9.06E+04  +5.73E+05  +1.74E+05  +7.878E+01  +2.477E+03  -3.014E+02  -3.660E+01  -6.602E+02  -2.402E+02  +2.880E+03
  +6.50E+04  +5.73E+05  +1.50E+05  +7.878E+01  +2.477E+03  -3.014E+02  -3.660E+01  -6.602E+02  -2.402E+02  +2.880E+03
  +9.22E+04  +5.92E+05  +1.38E+05  +7.878E+01  +2.477E+03  -3.014E+02  -3.660E+01  -6.602E+02  -2.402E+02  +2.880E+03

element # = 593     type =4-n tetrahedron
 XX         YY         ZZ         SIGXX       SIGYY       SIGZZ       TAUXY       TAUYZ       TAUZX       SIGV
  +7.95E+04  +5.65E+05  +1.16E+04  +7.727E+01  -3.868E+03  -2.180E+02  -1.969E+01  -9.315E+02  +1.985E+02  +4.149E+03
  +5.95E+04  +5.44E+05  +3.18E+04  +7.727E+01  -3.868E+03  -2.180E+02  -1.969E+01  -9.315E+02  +1.985E+02  +4.149E+03
  +5.72E+04  +5.54E+05  +1.16E+04  +7.727E+01  -3.868E+03  -2.180E+02  -1.969E+01  -9.315E+02  +1.985E+02  +4.149E+03
  +5.57E+04  +5.75E+05  +2.90E+04  +7.727E+01  -3.868E+03  -2.180E+02  -1.969E+01  -9.315E+02  +1.985E+02  +4.149E+03

element # = 594     type =4-n tetrahedron
 XX         YY         ZZ         SIGXX       SIGYY       SIGZZ       TAUXY       TAUYZ       TAUZX       SIGV
  +3.36E+04  +9.66E+05  +2.03E+04  +1.916E+01  -2.432E+01  -3.855E+01  -1.164E+01  -3.509E+01  +2.351E+00  +8.264E+01
  +3.56E+04  +9.81E+05  +4.79E+03  +1.916E+01  -2.432E+01  -3.855E+01  -1.164E+01  -3.509E+01  +2.351E+00  +8.264E+01
  +1.77E+04  +9.60E+05  +4.79E+03  +1.916E+01  -2.432E+01  -3.855E+01  -1.164E+01  -3.509E+01  +2.351E+00  +8.264E+01
  +4.11E+04  +9.56E+05  +4.79E+03  +1.916E+01  -2.432E+01  -3.855E+01  -1.164E+01  -3.509E+01  +2.351E+00  +8.264E+01

element # = 595     type =4-n tetrahedron
 XX         YY         ZZ         SIGXX       SIGYY       SIGZZ       TAUXY       TAUYZ       TAUZX       SIGV
  +1.93E+05  +6.32E+05  +6.91E+03  -2.343E+01  -4.192E+03  -1.971E+01  -2.430E+02  -6.853E+02  -1.863E+02  +4.368E+03
  +1.71E+05  +6.43E+05  +6.91E+03  -2.343E+01  -4.192E+03  -1.971E+01  -2.430E+02  -6.853E+02  -1.863E+02  +4.368E+03
  +1.93E+05  +6.54E+05  +6.91E+03  -2.343E+01  -4.192E+03  -1.971E+01  -2.430E+02  -6.853E+02  -1.863E+02  +4.368E+03
  +1.93E+05  +6.43E+05  +2.93E+04  -2.343E+01  -4.192E+03  -1.971E+01  -2.430E+02  -6.853E+02  -1.863E+02  +4.368E+03

element # = 596     type =4-n tetrahedron
 XX         YY         ZZ         SIGXX       SIGYY       SIGZZ       TAUXY       TAUYZ       TAUZX       SIGV
  +1.86E+04  +8.38E+05  +5.25E+04  +5.927E+01  -3.970E+02  -7.764E+01  -2.697E+01  -4.790E+02  -8.679E+00  +9.248E+02
  +4.17E+04  +8.34E+05  +4.68E+04  +5.927E+01  -3.970E+02  -7.764E+01  -2.697E+01  -4.790E+02  -8.679E+00  +9.248E+02
  +3.74E+04  +8.34E+05  +6.93E+04  +5.927E+01  -3.970E+02  -7.764E+01  -2.697E+01  -4.790E+02  -8.679E+00  +9.248E+02
  +3.68E+04  +8.55E+05  +4.88E+04  +5.927E+01  -3.970E+02  -7.764E+01  -2.697E+01  -4.790E+02  -8.679E+00  +9.248E+02

element # = 597     type =4-n tetrahedron
 XX         YY         ZZ         SIGXX       SIGYY       SIGZZ       TAUXY       TAUYZ       TAUZX       SIGV
  +1.84E+05  +7.17E+05  +1.55E+05  -2.190E+02  +1.319E+03  -5.921E+02  -7.627E+00  -8.604E+02  +1.835E+02  +2.324E+03
  +1.62E+05  +6.95E+05  +1.77E+05  -2.190E+02  +1.319E+03  -5.921E+02  -7.627E+00  -8.604E+02  +1.835E+02  +2.324E+03
  +1.84E+05  +6.95E+05  +1.55E+05  -2.190E+02  +1.319E+03  -5.921E+02  -7.627E+00  -8.604E+02  +1.835E+02  +2.324E+03
  +1.56E+05  +6.89E+05  +1.49E+05  -2.190E+02  +1.319E+03  -5.921E+02  -7.627E+00  -8.604E+02  +1.835E+02  +2.324E+03

element # = 598     type =4-n tetrahedron
 XX         YY         ZZ         SIGXX       SIGYY       SIGZZ       TAUXY       TAUYZ       TAUZX       SIGV
  +1.12E+05  +2.50E+05  +7.93E+03  +7.668E+02  -1.688E+04  -2.341E+02  +3.017E+02  -1.332E+03  -5.541E+02  +1.736E+04
  +1.30E+05  +2.60E+05  +3.36E+04  +7.668E+02  -1.688E+04  -2.341E+02  +3.017E+02  -1.332E+03  -5.541E+02  +1.736E+04
  +1.12E+05  +2.72E+05  +7.93E+03  +7.668E+02  -1.688E+04  -2.341E+02  +3.017E+02  -1.332E+03  -5.541E+02  +1.736E+04
  +1.35E+05  +2.61E+05  +7.93E+03  +7.668E+02  -1.688E+04  -2.341E+02  +3.017E+02  -1.332E+03  -5.541E+02  +1.736E+04

element # = 599     type =4-n tetrahedron
 XX         YY         ZZ         SIGXX       SIGYY       SIGZZ       TAUXY       TAUYZ       TAUZX       SIGV
  +1.71E+05  +6.91E+05  +6.91E+03  -2.340E+02  -3.225E+03  -3.257E+02  -1.562E+02  -5.253E+02  -6.995E+01  +3.098E+03
  +1.93E+05  +6.91E+05  +2.93E+04  -2.340E+02  -3.225E+03  -3.257E+02  -1.562E+02  -5.253E+02  -6.995E+01  +3.098E+03
  +1.93E+05  +7.01E+05  +6.91E+03  -2.340E+02  -3.225E+03  -3.257E+02  -1.562E+02  -5.253E+02  -6.995E+01  +3.098E+03
  +1.93E+05  +6.80E+05  +6.91E+03  -2.340E+02  -3.225E+03  -3.257E+02  -1.562E+02  -5.253E+02  -6.995E+01  +3.098E+03

element # = 600     type =4-n tetrahedron
 XX         YY         ZZ         SIGXX       SIGYY       SIGZZ       TAUXY       TAUYZ       TAUZX       SIGV
  +1.21E+04  +6.51E+04  +1.35E+05  +5.969E+02  +6.716E+03  +1.349E+03  +5.570E+02  -2.034E+03  +8.692E+02  +7.001E+03
  +2.86E+04  +5.82E+04  +1.25E+05  +5.969E+02  +6.716E+03  +1.349E+03  +5.570E+02  -2.034E+03  +8.692E+02  +7.001E+03
  +3.47E+04  +8.29E+04  +1.22E+05  +5.969E+02  +6.716E+03  +1.349E+03  +5.570E+02  -2.034E+03  +8.692E+02  +7.001E+03
  +1.21E+04  +8.03E+04  +1.13E+05  +5.969E+02  +6.716E+03  +1.349E+03  +5.570E+02  -2.034E+03  +8.692E+02  +7.001E+03

element # = 601     type =4-n tetrahedron
 XX         YY         ZZ         SIGXX       SIGYY       SIGZZ       TAUXY       TAUYZ       TAUZX       SIGV
  +1.44E+05  +7.41E+05  +1.59E+05  +5.235E+02  +2.431E+03  -2.190E+02  +5.219E+01  -3.094E+02  +3.072E+01  +2.430E+03
  +1.54E+05  +7.13E+05  +1.85E+05  +5.235E+02  +2.431E+03  -2.190E+02  +5.219E+01  -3.094E+02  +3.072E+01  +2.430E+03
  +1.54E+05  +7.34E+05  +1.85E+05  +5.235E+02  +2.431E+03  -2.190E+02  +5.219E+01  -3.094E+02  +3.072E+01  +2.430E+03
  +1.76E+05  +7.34E+05  +1.63E+05  +5.235E+02  +2.431E+03  -2.190E+02  +5.219E+01  -3.094E+02  +3.072E+01  +2.430E+03

element # = 602     type =4-n tetrahedron
 XX         YY         ZZ         SIGXX       SIGYY       SIGZZ       TAUXY       TAUYZ       TAUZX       SIGV
  +8.13E+04  +7.69E+04  +1.51E+05  +2.349E+03  +1.581E+04  +4.280E+02  -1.305E+03  -7.144E+02  -3.807E+01  +1.474E+04
  +7.82E+04  +9.89E+04  +1.56E+05  +2.349E+03  +1.581E+04  +4.280E+02  -1.305E+03  -7.144E+02  -3.807E+01  +1.474E+04
  +6.81E+04  +9.66E+04  +1.34E+05  +2.349E+03  +1.581E+04  +4.280E+02  -1.305E+03  -7.144E+02  -3.807E+01  +1.474E+04
  +1.02E+05  +1.14E+05  +1.42E+05  +2.349E+03  +1.581E+04  +4.280E+02  -1.305E+03  -7.144E+02  -3.807E+01  +1.474E+04

element # = 603     type =4-n tetrahedron
 XX         YY         ZZ         SIGXX       SIGYY       SIGZZ       TAUXY       TAUYZ       TAUZX       SIGV
  +1.61E+05  +4.66E+05  +1.43E+05  +5.663E+02  +4.717E+03  +1.492E+02  +1.039E+02  -1.776E+03  -1.874E+02  +5.360E+03
  +1.84E+05  +4.79E+05  +1.20E+05  +5.663E+02  +4.717E+03  +1.492E+02  +1.039E+02  -1.776E+03  -1.874E+02  +5.360E+03
  +1.84E+05  +4.90E+05  +1.42E+05  +5.663E+02  +4.717E+03  +1.492E+02  +1.039E+02  -1.776E+03  -1.874E+02  +5.360E+03
  +1.54E+05  +4.93E+05  +1.38E+05  +5.663E+02  +4.717E+03  +1.492E+02  +1.039E+02  -1.776E+03  -1.874E+02  +5.360E+03

element # = 604     type =4-n tetrahedron
 XX         YY         ZZ         SIGXX       SIGYY       SIGZZ       TAUXY       TAUYZ       TAUZX       SIGV
  +1.14E+05  +8.03E+05  +1.82E+05  -6.610E+01  +6.706E+02  -4.865E+02  -5.263E+01  -3.589E+02  -1.878E+01  +1.194E+03
  +1.27E+05  +7.76E+05  +1.56E+05  -6.610E+01  +6.706E+02  -4.865E+02  -5.263E+01  -3.589E+02  -1.878E+01  +1.194E+03
  +1.37E+05  +7.91E+05  +1.82E+05  -6.610E+01  +6.706E+02  -4.865E+02  -5.263E+01  -3.589E+02  -1.878E+01  +1.194E+03
  +1.27E+05  +8.09E+05  +1.51E+05  -6.610E+01  +6.706E+02  -4.865E+02  -5.263E+01  -3.589E+02  -1.878E+01  +1.194E+03

element # = 605     type =4-n tetrahedron
 XX         YY         ZZ         SIGXX       SIGYY       SIGZZ       TAUXY       TAUYZ       TAUZX       SIGV
  +7.97E+04  +8.52E+05  +1.89E+05  -1.004E+02  +4.283E+02  -5.055E+02  -4.456E+01  -2.495E+02  +3.303E+01  +9.240E+02
  +5.25E+04  +8.56E+05  +1.75E+05  -1.004E+02  +4.283E+02  -5.055E+02  -4.456E+01  -2.495E+02  +3.303E+01  +9.240E+02
  +5.74E+04  +8.41E+05  +1.89E+05  -1.004E+02  +4.283E+02  -5.055E+02  -4.456E+01  -2.495E+02  +3.303E+01  +9.240E+02
  +6.34E+04  +8.28E+05  +1.66E+05  -1.004E+02  +4.283E+02  -5.055E+02  -4.456E+01  -2.495E+02  +3.303E+01  +9.240E+02

element # = 606     type =4-n tetrahedron
 XX         YY         ZZ         SIGXX       SIGYY       SIGZZ       TAUXY       TAUYZ       TAUZX       SIGV
  +9.28E+04  +8.52E+05  +1.74E+05  +8.093E+01  +5.631E+02  -3.445E+02  +6.293E+01  -3.573E+02  -1.780E+00  +1.007E+03
  +7.33E+04  +8.59E+05  +1.42E+05  +8.093E+01  +5.631E+02  -3.445E+02  +6.293E+01  -3.573E+02  -1.780E+00  +1.007E+03
  +7.65E+04  +8.28E+05  +1.51E+05  +8.093E+01  +5.631E+02  -3.445E+02  +6.293E+01  -3.573E+02  -1.780E+00  +1.007E+03
  +1.05E+05  +8.36E+05  +1.42E+05  +8.093E+01  +5.631E+02  -3.445E+02  +6.293E+01  -3.573E+02  -1.780E+00  +1.007E+03

element # = 607     type =4-n tetrahedron
 XX         YY         ZZ         SIGXX       SIGYY       SIGZZ       TAUXY       TAUYZ       TAUZX       SIGV
  +8.37E+04  +8.08E+05  +5.22E+04  +7.038E+01  -4.259E+02  +8.015E+00  +1.033E+01  -4.023E+02  -5.490E+01  +8.451E+02
  +9.51E+04  +8.17E+05  +2.28E+04  +7.038E+01  -4.259E+02  +8.015E+00  +1.033E+01  -4.023E+02  -5.490E+01  +8.451E+02
  +1.12E+05  +8.33E+05  +5.06E+04  +7.038E+01  -4.259E+02  +8.015E+00  +1.033E+01  -4.023E+02  -5.490E+01  +8.451E+02
  +7.34E+04  +8.23E+05  +3.96E+04  +7.038E+01  -4.259E+02  +8.015E+00  +1.033E+01  -4.023E+02  -5.490E+01  +8.451E+02

element # = 608     type =4-n tetrahedron
 XX         YY         ZZ         SIGXX       SIGYY       SIGZZ       TAUXY       TAUYZ       TAUZX       SIGV
  +6.01E+03  +5.39E+05  +9.16E+04  +6.234E+02  +6.879E+02  +3.047E+02  -1.642E+02  -1.647E+03  +3.030E+02  +2.936E+03
  +6.01E+03  +5.50E+05  +6.92E+04  +6.234E+02  +6.879E+02  +3.047E+02  -1.642E+02  -1.647E+03  +3.030E+02  +2.936E+03
  +2.55E+04  +5.61E+05  +8.63E+04  +6.234E+02  +6.879E+02  +3.047E+02  -1.642E+02  -1.647E+03  +3.030E+02  +2.936E+03
  +6.01E+03  +5.61E+05  +9.16E+04  +6.234E+02  +6.879E+02  +3.047E+02  -1.642E+02  -1.647E+03  +3.030E+02  +2.936E+03

element # = 609     type =4-n tetrahedron
 XX         YY         ZZ         SIGXX       SIGYY       SIGZZ       TAUXY       TAUYZ       TAUZX       SIGV
  +1.12E+05  +1.76E+05  +9.08E+03  -1.514E+03  -2.161E+04  -1.190E+02  -1.584E+03  -7.945E+02  -7.837E+02  +2.110E+04
  +1.35E+05  +1.65E+05  +9.08E+03  -1.514E+03  -2.161E+04  -1.190E+02  -1.584E+03  -7.945E+02  -7.837E+02  +2.110E+04
  +1.12E+05  +1.53E+05  +9.08E+03  -1.514E+03  -2.161E+04  -1.190E+02  -1.584E+03  -7.945E+02  -7.837E+02  +2.110E+04
  +1.30E+05  +1.68E+05  +3.85E+04  -1.514E+03  -2.161E+04  -1.190E+02  -1.584E+03  -7.945E+02  -7.837E+02  +2.110E+04

element # = 610     type =4-n tetrahedron
 XX         YY         ZZ         SIGXX       SIGYY       SIGZZ       TAUXY       TAUYZ       TAUZX       SIGV
  +5.28E+04  +6.15E+05  +7.18E+04  +9.364E+00  -7.280E+02  +2.022E+01  -1.598E+02  -1.280E+03  -1.278E+01  +2.355E+03
  +2.20E+04  +6.10E+05  +8.57E+04  +9.364E+00  -7.280E+02  +2.022E+01  -1.598E+02  -1.280E+03  -1.278E+01  +2.355E+03
  +4.15E+04  +5.89E+05  +8.04E+04  +9.364E+00  -7.280E+02  +2.022E+01  -1.598E+02  -1.280E+03  -1.278E+01  +2.355E+03
  +4.29E+04  +6.00E+05  +5.83E+04  +9.364E+00  -7.280E+02  +2.022E+01  -1.598E+02  -1.280E+03  -1.278E+01  +2.355E+03

element # = 611     type =4-n tetrahedron
 XX         YY         ZZ         SIGXX       SIGYY       SIGZZ       TAUXY       TAUYZ       TAUZX       SIGV
  +1.13E+05  +3.20E+05  +1.92E+05  +5.803E+02  +1.483E+04  -1.337E+03  -1.257E+01  -5.462E+02  -1.845E+02  +1.533E+04
  +1.13E+05  +2.99E+05  +1.92E+05  +5.803E+02  +1.483E+04  -1.337E+03  -1.257E+01  -5.462E+02  -1.845E+02  +1.533E+04
  +1.35E+05  +3.10E+05  +1.92E+05  +5.803E+02  +1.483E+04  -1.337E+03  -1.257E+01  -5.462E+02  -1.845E+02  +1.533E+04
  +1.33E+05  +3.12E+05  +1.64E+05  +5.803E+02  +1.483E+04  -1.337E+03  -1.257E+01  -5.462E+02  -1.845E+02  +1.533E+04

element # = 612     type =4-n tetrahedron
 XX         YY         ZZ         SIGXX       SIGYY       SIGZZ       TAUXY       TAUYZ       TAUZX       SIGV
  +1.06E+05  +2.84E+05  +1.61E+05  -2.061E+02  +1.169E+04  -2.541E+03  -5.054E+02  -1.775E+03  +2.105E+02  +1.360E+04
  +1.34E+05  +2.75E+05  +1.84E+05  -2.061E+02  +1.169E+04  -2.541E+03  -5.054E+02  -1.775E+03  +2.105E+02  +1.360E+04
  +1.11E+05  +2.85E+05  +1.84E+05  -2.061E+02  +1.169E+04  -2.541E+03  -5.054E+02  -1.775E+03  +2.105E+02  +1.360E+04
  +1.31E+05  +2.98E+05  +1.57E+05  -2.061E+02  +1.169E+04  -2.541E+03  -5.054E+02  -1.775E+03  +2.105E+02  +1.360E+04

element # = 613     type =4-n tetrahedron
 XX         YY         ZZ         SIGXX       SIGYY       SIGZZ       TAUXY       TAUYZ       TAUZX       SIGV
  +1.25E+04  +3.65E+05  +1.51E+05  +1.475E+01  +5.940E+03  -2.928E+02  +4.899E+01  -1.946E+03  +1.682E+02  +6.963E+03
  +3.65E+04  +3.78E+05  +1.49E+05  +1.475E+01  +5.940E+03  -2.928E+02  +4.899E+01  -1.946E+03  +1.682E+02  +6.963E+03
  +1.25E+04  +3.74E+05  +1.35E+05  +1.475E+01  +5.940E+03  -2.928E+02  +4.899E+01  -1.946E+03  +1.682E+02  +6.963E+03
  +2.88E+04  +3.65E+05  +1.34E+05  +1.475E+01  +5.940E+03  -2.928E+02  +4.899E+01  -1.946E+03  +1.682E+02  +6.963E+03

element # = 614     type =4-n tetrahedron
 XX         YY         ZZ         SIGXX       SIGYY       SIGZZ       TAUXY       TAUYZ       TAUZX       SIGV
  +7.80E+04  +4.41E+05  +1.21E+05  -8.933E+02  +2.540E+02  -1.536E+03  -8.090E+01  -1.563E+03  +7.353E+02  +3.382E+03
  +5.13E+04  +4.35E+05  +1.42E+05  -8.933E+02  +2.540E+02  -1.536E+03  -8.090E+01  -1.563E+03  +7.353E+02  +3.382E+03
  +5.19E+04  +4.22E+05  +1.14E+05  -8.933E+02  +2.540E+02  -1.536E+03  -8.090E+01  -1.563E+03  +7.353E+02  +3.382E+03
  +4.78E+04  +4.42E+05  +1.21E+05  -8.933E+02  +2.540E+02  -1.536E+03  -8.090E+01  -1.563E+03  +7.353E+02  +3.382E+03

element # = 615     type =4-n tetrahedron
 XX         YY         ZZ         SIGXX       SIGYY       SIGZZ       TAUXY       TAUYZ       TAUZX       SIGV
  +1.50E+05  +6.13E+05  +4.54E+04  -4.895E+01  -2.103E+03  +3.430E+01  -1.481E+02  -4.937E+02  +2.881E+02  +2.333E+03
  +1.54E+05  +6.39E+05  +2.20E+04  -4.895E+01  -2.103E+03  +3.430E+01  -1.481E+02  -4.937E+02  +2.881E+02  +2.333E+03
  +1.77E+05  +6.39E+05  +4.43E+04  -4.895E+01  -2.103E+03  +3.430E+01  -1.481E+02  -4.937E+02  +2.881E+02  +2.333E+03
  +1.51E+05  +6.50E+05  +4.72E+04  -4.895E+01  -2.103E+03  +3.430E+01  -1.481E+02  -4.937E+02  +2.881E+02  +2.333E+03

element # = 616     type =4-n tetrahedron
 XX         YY         ZZ         SIGXX       SIGYY       SIGZZ       TAUXY       TAUYZ       TAUZX       SIGV
  +1.91E+05  +6.68E+05  +1.19E+05  +4.753E+02  +2.183E+03  +1.466E+02  +2.651E+01  -1.126E+03  -2.351E+02  +2.749E+03
  +1.91E+05  +6.58E+05  +1.41E+05  +4.753E+02  +2.183E+03  +1.466E+02  +2.651E+01  -1.126E+03  -2.351E+02  +2.749E+03
  +1.63E+05  +6.72E+05  +1.35E+05  +4.753E+02  +2.183E+03  +1.466E+02  +2.651E+01  -1.126E+03  -2.351E+02  +2.749E+03
  +1.91E+05  +6.79E+05  +1.41E+05  +4.753E+02  +2.183E+03  +1.466E+02  +2.651E+01  -1.126E+03  -2.351E+02  +2.749E+03

element # = 617     type =4-n tetrahedron
 XX         YY         ZZ         SIGXX       SIGYY       SIGZZ       TAUXY       TAUYZ       TAUZX       SIGV
  +1.16E+05  +5.11E+05  +4.34E+04  -1.715E+03  -8.450E+03  -1.082E+03  -2.218E+02  -3.902E+02  -1.688E+02  +7.122E+03
  +9.91E+04  +4.95E+05  +1.50E+04  -1.715E+03  -8.450E+03  -1.082E+03  -2.218E+02  -3.902E+02  -1.688E+02  +7.122E+03
  +9.91E+04  +5.16E+05  +1.50E+04  -1.715E+03  -8.450E+03  -1.082E+03  -2.218E+02  -3.902E+02  -1.688E+02  +7.122E+03
  +7.90E+04  +5.16E+05  +3.52E+04  -1.715E+03  -8.450E+03  -1.082E+03  -2.218E+02  -3.902E+02  -1.688E+02  +7.122E+03

element # = 618     type =4-n tetrahedron
 XX         YY         ZZ         SIGXX       SIGYY       SIGZZ       TAUXY       TAUYZ       TAUZX       SIGV
  +3.65E+04  +7.96E+05  +1.21E+04  +2.521E+01  -9.282E+02  +1.148E+01  +6.013E+01  -3.347E+02  -2.309E+01  +1.116E+03
  +1.41E+04  +7.96E+05  +3.45E+04  +2.521E+01  -9.282E+02  +1.148E+01  +6.013E+01  -3.347E+02  -2.309E+01  +1.116E+03
  +1.41E+04  +8.06E+05  +1.21E+04  +2.521E+01  -9.282E+02  +1.148E+01  +6.013E+01  -3.347E+02  -2.309E+01  +1.116E+03
  +3.72E+04  +8.13E+05  +2.88E+04  +2.521E+01  -9.282E+02  +1.148E+01  +6.013E+01  -3.347E+02  -2.309E+01  +1.116E+03

element # = 619     type =4-n tetrahedron
 XX         YY         ZZ         SIGXX       SIGYY       SIGZZ       TAUXY       TAUYZ       TAUZX       SIGV
  +9.74E+04  +5.74E+05  +8.13E+04  +2.974E+02  -1.063E+03  -1.753E+02  +1.573E+02  -1.011E+03  +1.579E+02  +2.156E+03
  +1.18E+05  +5.90E+05  +6.81E+04  +2.974E+02  -1.063E+03  -1.753E+02  +1.573E+02  -1.011E+03  +1.579E+02  +2.156E+03
  +1.02E+05  +6.03E+05  +9.84E+04  +2.974E+02  -1.063E+03  -1.753E+02  +1.573E+02  -1.011E+03  +1.579E+02  +2.156E+03
  +8.68E+04  +6.10E+05  +7.56E+04  +2.974E+02  -1.063E+03  -1.753E+02  +1.573E+02  -1.011E+03  +1.579E+02  +2.156E+03

element # = 620     type =4-n tetrahedron
 XX         YY         ZZ         SIGXX       SIGYY       SIGZZ       TAUXY       TAUYZ       TAUZX       SIGV
  +1.93E+05  +6.06E+05  +6.91E+03  -3.414E+02  -5.176E+03  -7.540E+01  -1.708E+02  -8.258E+02  -2.439E+02  +5.200E+03
  +1.93E+05  +5.95E+05  +2.93E+04  -3.414E+02  -5.176E+03  -7.540E+01  -1.708E+02  -8.258E+02  -2.439E+02  +5.200E+03
  +1.93E+05  +5.85E+05  +6.91E+03  -3.414E+02  -5.176E+03  -7.540E+01  -1.708E+02  -8.258E+02  -2.439E+02  +5.200E+03
  +1.71E+05  +5.95E+05  +6.91E+03  -3.414E+02  -5.176E+03  -7.540E+01  -1.708E+02  -8.258E+02  -2.439E+02  +5.200E+03

element # = 621     type =4-n tetrahedron
 XX         YY         ZZ         SIGXX       SIGYY       SIGZZ       TAUXY       TAUYZ       TAUZX       SIGV
  +1.71E+05  +1.65E+05  +1.93E+05  +1.525E+03  +2.459E+04  +3.252E+02  +1.993E+02  -1.614E+03  +3.264E+02  +2.387E+04
  +1.93E+05  +1.65E+05  +1.71E+05  +1.525E+03  +2.459E+04  +3.252E+02  +1.993E+02  -1.614E+03  +3.264E+02  +2.387E+04
  +1.93E+05  +1.55E+05  +1.93E+05  +1.525E+03  +2.459E+04  +3.252E+02  +1.993E+02  -1.614E+03  +3.264E+02  +2.387E+04
  +1.93E+05  +1.77E+05  +1.93E+05  +1.525E+03  +2.459E+04  +3.252E+02  +1.993E+02  -1.614E+03  +3.264E+02  +2.387E+04

element # = 622     type =4-n tetrahedron
 XX         YY         ZZ         SIGXX       SIGYY       SIGZZ       TAUXY       TAUYZ       TAUZX       SIGV
  +1.93E+05  +2.30E+05  +1.64E+05  -1.169E+03  +8.613E+03  -1.339E+03  -1.396E+02  -1.177E+03  -9.040E+02  +1.020E+04
  +1.71E+05  +2.51E+05  +1.86E+05  -1.169E+03  +8.613E+03  -1.339E+03  -1.396E+02  -1.177E+03  -9.040E+02  +1.020E+04
  +1.93E+05  +2.51E+05  +1.64E+05  -1.169E+03  +8.613E+03  -1.339E+03  -1.396E+02  -1.177E+03  -9.040E+02  +1.020E+04
  +1.93E+05  +2.41E+05  +1.86E+05  -1.169E+03  +8.613E+03  -1.339E+03  -1.396E+02  -1.177E+03  -9.040E+02  +1.020E+04

element # = 623     type =4-n tetrahedron
 XX         YY         ZZ         SIGXX       SIGYY       SIGZZ       TAUXY       TAUYZ       TAUZX       SIGV
  +2.95E+04  +1.15E+05  +1.93E+05  +1.785E+03  +2.577E+04  +5.274E+02  -2.973E+01  -2.093E+03  +7.992E+02  +2.494E+04
  +6.98E+03  +1.16E+05  +1.71E+05  +1.785E+03  +2.577E+04  +5.274E+02  -2.973E+01  -2.093E+03  +7.992E+02  +2.494E+04
  +6.98E+03  +1.28E+05  +1.93E+05  +1.785E+03  +2.577E+04  +5.274E+02  -2.973E+01  -2.093E+03  +7.992E+02  +2.494E+04
  +6.98E+03  +1.07E+05  +1.93E+05  +1.785E+03  +2.577E+04  +5.274E+02  -2.973E+01  -2.093E+03  +7.992E+02  +2.494E+04

element # = 624     type =4-n tetrahedron
 XX         YY         ZZ         SIGXX       SIGYY       SIGZZ       TAUXY       TAUYZ       TAUZX       SIGV
  +5.59E+04  +2.93E+05  +1.12E+05  -3.309E+02  +1.001E+03  -4.792E+02  +2.676E+01  -1.671E+03  +2.127E+02  +3.242E+03
  +5.77E+04  +2.65E+05  +1.08E+05  -3.309E+02  +1.001E+03  -4.792E+02  +2.676E+01  -1.671E+03  +2.127E+02  +3.242E+03
  +7.68E+04  +2.82E+05  +1.28E+05  -3.309E+02  +1.001E+03  -4.792E+02  +2.676E+01  -1.671E+03  +2.127E+02  +3.242E+03
  +7.83E+04  +2.87E+05  +1.02E+05  -3.309E+02  +1.001E+03  -4.792E+02  +2.676E+01  -1.671E+03  +2.127E+02  +3.242E+03

element # = 625     type =4-n tetrahedron
 XX         YY         ZZ         SIGXX       SIGYY       SIGZZ       TAUXY       TAUYZ       TAUZX       SIGV
  +8.25E+04  +4.49E+04  +2.52E+04  -4.053E+03  -2.843E+04  -3.076E+03  +4.962E+02  -1.710E+03  +1.258E+03  +2.517E+04
  +8.87E+04  +3.92E+04  +5.95E+03  -4.053E+03  -2.843E+04  -3.076E+03  +4.962E+02  -1.710E+03  +1.258E+03  +2.517E+04
  +6.75E+04  +4.58E+04  +5.95E+03  -4.053E+03  -2.843E+04  -3.076E+03  +4.962E+02  -1.710E+03  +1.258E+03  +2.517E+04
  +7.98E+04  +2.08E+04  +5.95E+03  -4.053E+03  -2.843E+04  -3.076E+03  +4.962E+02  -1.710E+03  +1.258E+03  +2.517E+04

element # = 626     type =4-n tetrahedron
 XX         YY         ZZ         SIGXX       SIGYY       SIGZZ       TAUXY       TAUYZ       TAUZX       SIGV
  +6.98E+03  +3.58E+05  +7.81E+04  -5.643E+01  -2.216E+03  +4.185E+02  -2.168E+02  -1.678E+03  +6.695E+02  +3.981E+03
  +6.98E+03  +3.51E+05  +5.89E+04  -5.643E+01  -2.216E+03  +4.185E+02  -2.168E+02  -1.678E+03  +6.695E+02  +3.981E+03
  +6.98E+03  +3.37E+05  +7.63E+04  -5.643E+01  -2.216E+03  +4.185E+02  -2.168E+02  -1.678E+03  +6.695E+02  +3.981E+03
  +2.96E+04  +3.50E+05  +7.81E+04  -5.643E+01  -2.216E+03  +4.185E+02  -2.168E+02  -1.678E+03  +6.695E+02  +3.981E+03

element # = 627     type =4-n tetrahedron
 XX         YY         ZZ         SIGXX       SIGYY       SIGZZ       TAUXY       TAUYZ       TAUZX       SIGV
  +3.58E+04  +6.70E+05  +5.93E+04  -5.905E+02  -1.965E+03  -5.047E+02  +2.004E+02  -9.244E+02  -1.374E+02  +2.181E+03
  +3.76E+04  +6.90E+05  +6.18E+04  -5.905E+02  -1.965E+03  -5.047E+02  +2.004E+02  -9.244E+02  -1.374E+02  +2.181E+03
  +4.08E+04  +6.79E+05  +9.10E+04  -5.905E+02  -1.965E+03  -5.047E+02  +2.004E+02  -9.244E+02  -1.374E+02  +2.181E+03
  +1.83E+04  +6.73E+05  +8.59E+04  -5.905E+02  -1.965E+03  -5.047E+02  +2.004E+02  -9.244E+02  -1.374E+02  +2.181E+03

element # = 628     type =4-n tetrahedron
 XX         YY         ZZ         SIGXX       SIGYY       SIGZZ       TAUXY       TAUYZ       TAUZX       SIGV
  +1.92E+04  +2.02E+05  +1.22E+05  -1.425E+03  -2.369E+01  -1.263E+03  +9.558E+02  -1.228E+03  -8.832E+02  +3.372E+03
  +3.80E+04  +2.19E+05  +1.36E+05  -1.425E+03  -2.369E+01  -1.263E+03  +9.558E+02  -1.228E+03  -8.832E+02  +3.372E+03
  +3.98E+04  +2.25E+05  +1.13E+05  -1.425E+03  -2.369E+01  -1.263E+03  +9.558E+02  -1.228E+03  -8.832E+02  +3.372E+03
  +4.20E+04  +1.94E+05  +1.15E+05  -1.425E+03  -2.369E+01  -1.263E+03  +9.558E+02  -1.228E+03  -8.832E+02  +3.372E+03

element # = 629     type =4-n tetrahedron
 XX         YY         ZZ         SIGXX       SIGYY       SIGZZ       TAUXY       TAUYZ       TAUZX       SIGV
  +3.36E+04  +5.66E+04  +1.34E+05  -2.759E+03  +4.725E+03  -1.799E+03  +1.374E+03  -5.764E+02  -7.196E+02  +7.613E+03
  +3.32E+04  +7.35E+04  +1.51E+05  -2.759E+03  +4.725E+03  -1.799E+03  +1.374E+03  -5.764E+02  -7.196E+02  +7.613E+03
  +1.71E+04  +6.35E+04  +1.43E+05  -2.759E+03  +4.725E+03  -1.799E+03  +1.374E+03  -5.764E+02  -7.196E+02  +7.613E+03
  +3.97E+04  +8.13E+04  +1.31E+05  -2.759E+03  +4.725E+03  -1.799E+03  +1.374E+03  -5.764E+02  -7.196E+02  +7.613E+03

element # = 630     type =4-n tetrahedron
 XX         YY         ZZ         SIGXX       SIGYY       SIGZZ       TAUXY       TAUYZ       TAUZX       SIGV
  +1.78E+05  +6.94E+05  +3.71E+04  -3.445E+02  -2.430E+03  -4.819E+01  +1.172E+02  -6.420E+02  +6.859E+01  +2.519E+03
  +1.56E+05  +6.94E+05  +1.47E+04  -3.445E+02  -2.430E+03  -4.819E+01  +1.172E+02  -6.420E+02  +6.859E+01  +2.519E+03
  +1.56E+05  +7.16E+05  +1.47E+04  -3.445E+02  -2.430E+03  -4.819E+01  +1.172E+02  -6.420E+02  +6.859E+01  +2.519E+03
  +1.53E+05  +6.85E+05  +3.99E+04  -3.445E+02  -2.430E+03  -4.819E+01  +1.172E+02  -6.420E+02  +6.859E+01  +2.519E+03

element # = 631     type =4-n tetrahedron
 XX         YY         ZZ         SIGXX       SIGYY       SIGZZ       TAUXY       TAUYZ       TAUZX       SIGV
  +1.60E+04  +6.20E+05  +8.04E+04  -3.497E+02  -2.124E+03  -4.219E+01  +2.505E+01  -1.133E+03  +1.495E+02  +2.777E+03
  +4.68E+04  +6.25E+05  +6.66E+04  -3.497E+02  -2.124E+03  -4.219E+01  +2.505E+01  -1.133E+03  +1.495E+02  +2.777E+03
  +1.60E+04  +6.31E+05  +5.80E+04  -3.497E+02  -2.124E+03  -4.219E+01  +2.505E+01  -1.133E+03  +1.495E+02  +2.777E+03
  +3.69E+04  +6.10E+05  +5.30E+04  -3.497E+02  -2.124E+03  -4.219E+01  +2.505E+01  -1.133E+03  +1.495E+02  +2.777E+03

element # = 632     type =4-n tetrahedron
 XX         YY         ZZ         SIGXX       SIGYY       SIGZZ       TAUXY       TAUYZ       TAUZX       SIGV
  +1.57E+05  +7.67E+05  +1.31E+05  -2.050E+02  +4.404E+00  -5.437E+02  +1.381E+02  -6.758E+02  -2.438E+01  +1.288E+03
  +1.90E+05  +7.94E+05  +1.13E+05  -2.050E+02  +4.404E+00  -5.437E+02  +1.381E+02  -6.758E+02  -2.438E+01  +1.288E+03
  +1.90E+05  +7.72E+05  +1.13E+05  -2.050E+02  +4.404E+00  -5.437E+02  +1.381E+02  -6.758E+02  -2.438E+01  +1.288E+03
  +1.90E+05  +7.83E+05  +1.35E+05  -2.050E+02  +4.404E+00  -5.437E+02  +1.381E+02  -6.758E+02  -2.438E+01  +1.288E+03

element # = 633     type =4-n tetrahedron
 XX         YY         ZZ         SIGXX       SIGYY       SIGZZ       TAUXY       TAUYZ       TAUZX       SIGV
  +5.41E+03  +6.55E+05  +5.56E+04  +7.404E+01  -1.951E+03  -1.558E+02  -6.242E+01  -1.111E+03  +8.318E+01  +2.724E+03
  +5.41E+03  +6.77E+05  +5.56E+04  +7.404E+01  -1.951E+03  -1.558E+02  -6.242E+01  -1.111E+03  +8.318E+01  +2.724E+03
  +2.29E+04  +6.63E+05  +5.14E+04  +7.404E+01  -1.951E+03  -1.558E+02  -6.242E+01  -1.111E+03  +8.318E+01  +2.724E+03
  +5.41E+03  +6.66E+05  +7.80E+04  +7.404E+01  -1.951E+03  -1.558E+02  -6.242E+01  -1.111E+03  +8.318E+01  +2.724E+03

element # = 634     type =4-n tetrahedron
 XX         YY         ZZ         SIGXX       SIGYY       SIGZZ       TAUXY       TAUYZ       TAUZX       SIGV
  +4.24E+04  +7.38E+05  +1.83E+05  +8.046E+01  +1.378E+03  -3.633E+02  -1.255E+02  -3.683E+02  -7.944E+01  +1.712E+03
  +2.00E+04  +7.38E+05  +1.61E+05  +8.046E+01  +1.378E+03  -3.633E+02  -1.255E+02  -3.683E+02  -7.944E+01  +1.712E+03
  +3.95E+04  +7.24E+05  +1.66E+05  +8.046E+01  +1.378E+03  -3.633E+02  -1.255E+02  -3.683E+02  -7.944E+01  +1.712E+03
  +4.30E+04  +7.47E+05  +1.67E+05  +8.046E+01  +1.378E+03  -3.633E+02  -1.255E+02  -3.683E+02  -7.944E+01  +1.712E+03

element # = 635     type =4-n tetrahedron
 XX         YY         ZZ         SIGXX       SIGYY       SIGZZ       TAUXY       TAUYZ       TAUZX       SIGV
  +6.89E+04  +6.93E+04  +1.55E+05  +1.466E+03  +1.704E+04  +1.162E+03  +4.469E+02  -1.771E+03  -2.558E+02  +1.605E+04
  +6.58E+04  +9.12E+04  +1.60E+05  +1.466E+03  +1.704E+04  +1.162E+03  +4.469E+02  -1.771E+03  -2.558E+02  +1.605E+04
  +4.92E+04  +8.12E+04  +1.58E+05  +1.466E+03  +1.704E+04  +1.162E+03  +4.469E+02  -1.771E+03  -2.558E+02  +1.605E+04
  +5.57E+04  +8.90E+04  +1.38E+05  +1.466E+03  +1.704E+04  +1.162E+03  +4.469E+02  -1.771E+03  -2.558E+02  +1.605E+04

element # = 636     type =4-n tetrahedron
 XX         YY         ZZ         SIGXX       SIGYY       SIGZZ       TAUXY       TAUYZ       TAUZX       SIGV
  +1.71E+05  +4.39E+05  +1.58E+05  -1.259E+02  +4.440E+03  -7.980E+02  -1.456E+02  -7.589E+02  -8.293E+02  +5.313E+03
  +1.93E+05  +4.20E+05  +1.57E+05  -1.259E+02  +4.440E+03  -7.980E+02  -1.456E+02  -7.589E+02  -8.293E+02  +5.313E+03
  +1.93E+05  +4.31E+05  +1.80E+05  -1.259E+02  +4.440E+03  -7.980E+02  -1.456E+02  -7.589E+02  -8.293E+02  +5.313E+03
  +1.93E+05  +4.42E+05  +1.57E+05  -1.259E+02  +4.440E+03  -7.980E+02  -1.456E+02  -7.589E+02  -8.293E+02  +5.313E+03

element # = 637     type =4-n tetrahedron
 XX         YY         ZZ         SIGXX       SIGYY       SIGZZ       TAUXY       TAUYZ       TAUZX       SIGV
  +1.64E+05  +5.16E+05  +1.93E+05  +5.450E+02  +6.883E+03  +3.799E+02  +3.319E+02  -3.467E+02  +9.681E+01  +6.478E+03
  +1.86E+05  +5.38E+05  +1.71E+05  +5.450E+02  +6.883E+03  +3.799E+02  +3.319E+02  -3.467E+02  +9.681E+01  +6.478E+03
  +1.86E+05  +5.27E+05  +1.93E+05  +5.450E+02  +6.883E+03  +3.799E+02  +3.319E+02  -3.467E+02  +9.681E+01  +6.478E+03
  +1.64E+05  +5.38E+05  +1.93E+05  +5.450E+02  +6.883E+03  +3.799E+02  +3.319E+02  -3.467E+02  +9.681E+01  +6.478E+03

element # = 638     type =4-n tetrahedron
 XX         YY         ZZ         SIGXX       SIGYY       SIGZZ       TAUXY       TAUYZ       TAUZX       SIGV
  +3.05E+04  +5.80E+05  +1.37E+05  -4.793E+01  +1.426E+03  -2.871E+02  -2.260E+02  -1.517E+03  +6.876E+01  +3.106E+03
  +1.13E+04  +5.80E+05  +1.16E+05  -4.793E+01  +1.426E+03  -2.871E+02  -2.260E+02  -1.517E+03  +6.876E+01  +3.106E+03
  +2.86E+04  +6.01E+05  +1.27E+05  -4.793E+01  +1.426E+03  -2.871E+02  -2.260E+02  -1.517E+03  +6.876E+01  +3.106E+03
  +1.13E+04  +5.91E+05  +1.39E+05  -4.793E+01  +1.426E+03  -2.871E+02  -2.260E+02  -1.517E+03  +6.876E+01  +3.106E+03

element # = 639     type =4-n tetrahedron
 XX         YY         ZZ         SIGXX       SIGYY       SIGZZ       TAUXY       TAUYZ       TAUZX       SIGV
  +1.06E+05  +6.47E+03  +8.54E+04  -2.101E+02  -4.902E+02  -2.101E+02  +1.686E+02  -3.308E+03  +0.000E+00  +5.744E+03
  +1.28E+05  +6.47E+03  +6.38E+04  -2.101E+02  -4.902E+02  -2.101E+02  +1.686E+02  -3.308E+03  +0.000E+00  +5.744E+03
  +1.05E+05  +2.74E+04  +8.55E+04  -2.101E+02  -4.902E+02  -2.101E+02  +1.686E+02  -3.308E+03  +0.000E+00  +5.744E+03
  +1.06E+05  +6.47E+03  +5.98E+04  -2.101E+02  -4.902E+02  -2.101E+02  +1.686E+02  -3.308E+03  +0.000E+00  +5.744E+03

element # = 640     type =4-n tetrahedron
 XX         YY         ZZ         SIGXX       SIGYY       SIGZZ       TAUXY       TAUYZ       TAUZX       SIGV
  +4.89E+04  +9.71E+05  +1.82E+05  -1.341E+01  +8.454E+00  -4.376E+02  -6.079E+00  -2.394E+01  +9.248E+00  +4.380E+02
  +5.32E+04  +9.62E+05  +1.96E+05  -1.341E+01  +8.454E+00  -4.376E+02  -6.079E+00  -2.394E+01  +9.248E+00  +4.380E+02
  +4.76E+04  +9.87E+05  +1.96E+05  -1.341E+01  +8.454E+00  -4.376E+02  -6.079E+00  -2.394E+01  +9.248E+00  +4.380E+02
  +6.55E+04  +9.87E+05  +1.96E+05  -1.341E+01  +8.454E+00  -4.376E+02  -6.079E+00  -2.394E+01  +9.248E+00  +4.380E+02

element # = 641     type =4-n tetrahedron
 XX         YY         ZZ         SIGXX       SIGYY       SIGZZ       TAUXY       TAUYZ       TAUZX       SIGV
  +1.93E+05  +1.47E+05  +3.64E+04  +1.911E+03  -1.159E+04  +1.568E+03  -1.043E+03  -5.632E+02  -1.818E+02  +1.349E+04
  +1.70E+05  +1.24E+05  +1.39E+04  +1.911E+03  -1.159E+04  +1.568E+03  -1.043E+03  -5.632E+02  -1.818E+02  +1.349E+04
  +1.93E+05  +1.24E+05  +3.65E+04  +1.911E+03  -1.159E+04  +1.568E+03  -1.043E+03  -5.632E+02  -1.818E+02  +1.349E+04
  +1.93E+05  +1.38E+05  +1.39E+04  +1.911E+03  -1.159E+04  +1.568E+03  -1.043E+03  -5.632E+02  -1.818E+02  +1.349E+04

element # = 642     type =4-n tetrahedron
 XX         YY         ZZ         SIGXX       SIGYY       SIGZZ       TAUXY       TAUYZ       TAUZX       SIGV
  +1.82E+05  +3.24E+05  +9.96E+04  +4.236E+02  -6.961E+02  +1.026E+03  +3.498E+02  -2.055E+03  -1.826E+02  +3.927E+03
  +1.48E+05  +3.26E+05  +8.09E+04  +4.236E+02  -6.961E+02  +1.026E+03  +3.498E+02  -2.055E+03  -1.826E+02  +3.927E+03
  +1.57E+05  +3.16E+05  +1.17E+05  +4.236E+02  -6.961E+02  +1.026E+03  +3.498E+02  -2.055E+03  -1.826E+02  +3.927E+03
  +1.82E+05  +3.03E+05  +9.96E+04  +4.236E+02  -6.961E+02  +1.026E+03  +3.498E+02  -2.055E+03  -1.826E+02  +3.927E+03

element # = 643     type =4-n tetrahedron
 XX         YY         ZZ         SIGXX       SIGYY       SIGZZ       TAUXY       TAUYZ       TAUZX       SIGV
  +1.23E+04  +2.79E+05  +1.28E+05  -1.011E+03  +5.117E+03  +2.814E+02  +1.492E+02  -2.379E+03  +1.980E+02  +6.961E+03
  +3.14E+04  +2.72E+05  +1.48E+05  -1.011E+03  +5.117E+03  +2.814E+02  +1.492E+02  -2.379E+03  +1.980E+02  +6.961E+03
  +3.28E+04  +2.58E+05  +1.21E+05  -1.011E+03  +5.117E+03  +2.814E+02  +1.492E+02  -2.379E+03  +1.980E+02  +6.961E+03
  +1.23E+04  +2.66E+05  +1.46E+05  -1.011E+03  +5.117E+03  +2.814E+02  +1.492E+02  -2.379E+03  +1.980E+02  +6.961E+03

element # = 644     type =4-n tetrahedron
 XX         YY         ZZ         SIGXX       SIGYY       SIGZZ       TAUXY       TAUYZ       TAUZX       SIGV
  +1.14E+04  +9.88E+05  +1.72E+05  -1.975E+01  +3.310E+01  -4.685E+02  -3.480E+00  -2.976E+01  -9.006E+00  +4.805E+02
  +2.93E+04  +9.88E+05  +1.90E+05  -1.975E+01  +3.310E+01  -4.685E+02  -3.480E+00  -2.976E+01  -9.006E+00  +4.805E+02
  +3.06E+04  +9.72E+05  +1.76E+05  -1.975E+01  +3.310E+01  -4.685E+02  -3.480E+00  -2.976E+01  -9.006E+00  +4.805E+02
  +1.14E+04  +9.67E+05  +1.90E+05  -1.975E+01  +3.310E+01  -4.685E+02  -3.480E+00  -2.976E+01  -9.006E+00  +4.805E+02

element # = 645     type =4-n tetrahedron
 XX         YY         ZZ         SIGXX       SIGYY       SIGZZ       TAUXY       TAUYZ       TAUZX       SIGV
  +1.86E+05  +7.77E+05  +1.71E+05  +1.746E+02  +1.875E+03  -1.203E+02  +1.606E+02  -1.536E+02  +5.726E+00  +1.905E+03
  +1.64E+05  +7.55E+05  +1.93E+05  +1.746E+02  +1.875E+03  -1.203E+02  +1.606E+02  -1.536E+02  +5.726E+00  +1.905E+03
  +1.64E+05  +7.77E+05  +1.93E+05  +1.746E+02  +1.875E+03  -1.203E+02  +1.606E+02  -1.536E+02  +5.726E+00  +1.905E+03
  +1.86E+05  +7.66E+05  +1.93E+05  +1.746E+02  +1.875E+03  -1.203E+02  +1.606E+02  -1.536E+02  +5.726E+00  +1.905E+03

element # = 646     type =4-n tetrahedron
 XX         YY         ZZ         SIGXX       SIGYY       SIGZZ       TAUXY       TAUYZ       TAUZX       SIGV
  +1.92E+05  +5.73E+05  +7.96E+04  -7.766E+01  -2.451E+03  -2.340E+02  -1.588E+02  -1.528E+03  -3.521E+02  +3.569E+03
  +1.92E+05  +5.84E+05  +5.72E+04  -7.766E+01  -2.451E+03  -2.340E+02  -1.588E+02  -1.528E+03  -3.521E+02  +3.569E+03
  +1.65E+05  +5.79E+05  +5.83E+04  -7.766E+01  -2.451E+03  -2.340E+02  -1.588E+02  -1.528E+03  -3.521E+02  +3.569E+03
  +1.92E+05  +5.63E+05  +5.72E+04  -7.766E+01  -2.451E+03  -2.340E+02  -1.588E+02  -1.528E+03  -3.521E+02  +3.569E+03

element # = 647     type =4-n tetrahedron
 XX         YY         ZZ         SIGXX       SIGYY       SIGZZ       TAUXY       TAUYZ       TAUZX       SIGV
  +4.28E+04  +1.75E+05  +4.14E+04  -1.213E+02  -1.170E+04  +3.499E+02  +1.117E+02  -2.369E+03  -4.777E+02  +1.254E+04
  +4.54E+04  +1.63E+05  +2.05E+04  -1.213E+02  -1.170E+04  +3.499E+02  +1.117E+02  -2.369E+03  -4.777E+02  +1.254E+04
  +2.30E+04  +1.64E+05  +4.07E+04  -1.213E+02  -1.170E+04  +3.499E+02  +1.117E+02  -2.369E+03  -4.777E+02  +1.254E+04
  +5.51E+04  +1.49E+05  +4.60E+04  -1.213E+02  -1.170E+04  +3.499E+02  +1.117E+02  -2.369E+03  -4.777E+02  +1.254E+04

element # = 648     type =4-n tetrahedron
 XX         YY         ZZ         SIGXX       SIGYY       SIGZZ       TAUXY       TAUYZ       TAUZX       SIGV
  +8.09E+04  +6.27E+05  +1.89E+05  -4.578E+02  +2.506E+03  -6.010E+02  -4.801E+02  -4.140E+02  +9.227E+01  +3.235E+03
  +5.86E+04  +6.38E+05  +1.89E+05  -4.578E+02  +2.506E+03  -6.010E+02  -4.801E+02  -4.140E+02  +9.227E+01  +3.235E+03
  +6.00E+04  +6.25E+05  +1.73E+05  -4.578E+02  +2.506E+03  -6.010E+02  -4.801E+02  -4.140E+02  +9.227E+01  +3.235E+03
  +6.26E+04  +6.46E+05  +1.70E+05  -4.578E+02  +2.506E+03  -6.010E+02  -4.801E+02  -4.140E+02  +9.227E+01  +3.235E+03

element # = 649     type =4-n tetrahedron
 XX         YY         ZZ         SIGXX       SIGYY       SIGZZ       TAUXY       TAUYZ       TAUZX       SIGV
  +3.57E+04  +3.21E+05  +1.21E+05  +2.387E+02  +3.066E+03  +2.635E+02  +3.934E+01  -2.487E+03  -6.273E+02  +5.260E+03
  +3.32E+04  +3.45E+05  +1.27E+05  +2.387E+02  +3.066E+03  +2.635E+02  +3.934E+01  -2.487E+03  -6.273E+02  +5.260E+03
  +3.64E+04  +3.32E+05  +1.42E+05  +2.387E+02  +3.066E+03  +2.635E+02  +3.934E+01  -2.487E+03  -6.273E+02  +5.260E+03
  +1.69E+04  +3.35E+05  +1.26E+05  +2.387E+02  +3.066E+03  +2.635E+02  +3.934E+01  -2.487E+03  -6.273E+02  +5.260E+03

element # = 650     type =4-n tetrahedron
 XX         YY         ZZ         SIGXX       SIGYY       SIGZZ       TAUXY       TAUYZ       TAUZX       SIGV
  +4.59E+04  +1.69E+05  +8.28E+04  -8.099E+02  -1.219E+04  -1.501E+03  +2.397E+01  -1.642E+03  -4.744E+02  +1.144E+04
  +4.29E+04  +1.76E+05  +5.61E+04  -8.099E+02  -1.219E+04  -1.501E+03  +2.397E+01  -1.642E+03  -4.744E+02  +1.144E+04
  +2.31E+04  +1.66E+05  +5.54E+04  -8.099E+02  -1.219E+04  -1.501E+03  +2.397E+01  -1.642E+03  -4.744E+02  +1.144E+04
  +5.52E+04  +1.50E+05  +6.07E+04  -8.099E+02  -1.219E+04  -1.501E+03  +2.397E+01  -1.642E+03  -4.744E+02  +1.144E+04

element # = 651     type =4-n tetrahedron
 XX         YY         ZZ         SIGXX       SIGYY       SIGZZ       TAUXY       TAUYZ       TAUZX       SIGV
  +9.15E+04  +5.12E+04  +5.95E+03  -5.885E+03  -3.506E+04  -4.320E+03  +4.598E+02  -3.811E+03  +3.362E+02  +3.072E+04
  +8.53E+04  +5.70E+04  +2.52E+04  -5.885E+03  -3.506E+04  -4.320E+03  +4.598E+02  -3.811E+03  +3.362E+02  +3.072E+04
  +7.02E+04  +5.79E+04  +5.95E+03  -5.885E+03  -3.506E+04  -4.320E+03  +4.598E+02  -3.811E+03  +3.362E+02  +3.072E+04
  +9.15E+04  +7.21E+04  +5.95E+03  -5.885E+03  -3.506E+04  -4.320E+03  +4.598E+02  -3.811E+03  +3.362E+02  +3.072E+04

element # = 652     type =4-n tetrahedron
 XX         YY         ZZ         SIGXX       SIGYY       SIGZZ       TAUXY       TAUYZ       TAUZX       SIGV
  +1.70E+05  +1.15E+05  +6.98E+03  -1.888E+03  -2.613E+04  -1.640E+03  +7.620E+02  -1.865E+03  -1.651E+03  +2.478E+04
  +1.93E+05  +1.07E+05  +6.98E+03  -1.888E+03  -2.613E+04  -1.640E+03  +7.620E+02  -1.865E+03  -1.651E+03  +2.478E+04
  +1.93E+05  +1.15E+05  +2.95E+04  -1.888E+03  -2.613E+04  -1.640E+03  +7.620E+02  -1.865E+03  -1.651E+03  +2.478E+04
  +1.93E+05  +1.28E+05  +6.98E+03  -1.888E+03  -2.613E+04  -1.640E+03  +7.620E+02  -1.865E+03  -1.651E+03  +2.478E+04

element # = 653     type =4-n tetrahedron
 XX         YY         ZZ         SIGXX       SIGYY       SIGZZ       TAUXY       TAUYZ       TAUZX       SIGV
  +3.29E+04  +1.85E+05  +5.94E+04  +5.234E+00  -6.579E+03  -2.021E+02  -7.182E+01  -1.794E+03  +2.185E+02  +7.200E+03
  +3.60E+04  +1.78E+05  +8.62E+04  +5.234E+00  -6.579E+03  -2.021E+02  -7.182E+01  -1.794E+03  +2.185E+02  +7.200E+03
  +1.32E+04  +1.75E+05  +5.88E+04  +5.234E+00  -6.579E+03  -2.021E+02  -7.182E+01  -1.794E+03  +2.185E+02  +7.200E+03
  +1.32E+04  +1.89E+05  +7.49E+04  +5.234E+00  -6.579E+03  -2.021E+02  -7.182E+01  -1.794E+03  +2.185E+02  +7.200E+03

element # = 654     type =4-n tetrahedron
 XX         YY         ZZ         SIGXX       SIGYY       SIGZZ       TAUXY       TAUYZ       TAUZX       SIGV
  +7.90E+04  +5.46E+05  +9.68E+04  +6.752E+01  +3.564E+02  -7.176E+02  +1.513E+02  -1.290E+03  +2.969E+02  +2.500E+03
  +5.98E+04  +5.29E+05  +1.13E+05  +6.752E+01  +3.564E+02  -7.176E+02  +1.513E+02  -1.290E+03  +2.969E+02  +2.500E+03
  +5.69E+04  +5.56E+05  +9.97E+04  +6.752E+01  +3.564E+02  -7.176E+02  +1.513E+02  -1.290E+03  +2.969E+02  +2.500E+03
  +7.55E+04  +5.44E+05  +1.26E+05  +6.752E+01  +3.564E+02  -7.176E+02  +1.513E+02  -1.290E+03  +2.969E+02  +2.500E+03

element # = 655     type =4-n tetrahedron
 XX         YY         ZZ         SIGXX       SIGYY       SIGZZ       TAUXY       TAUYZ       TAUZX       SIGV
  +1.30E+05  +5.92E+04  +1.76E+05  +3.144E+03  +3.004E+04  +6.117E+02  -3.109E+02  -2.883E+03  -4.855E+02  +2.870E+04
  +1.12E+05  +7.26E+04  +1.94E+05  +3.144E+03  +3.004E+04  +6.117E+02  -3.109E+02  -2.883E+03  -4.855E+02  +2.870E+04
  +1.33E+05  +5.84E+04  +1.94E+05  +3.144E+03  +3.004E+04  +6.117E+02  -3.109E+02  -2.883E+03  -4.855E+02  +2.870E+04
  +1.12E+05  +5.18E+04  +1.94E+05  +3.144E+03  +3.004E+04  +6.117E+02  -3.109E+02  -2.883E+03  -4.855E+02  +2.870E+04

element # = 656     type =4-n tetrahedron
 XX         YY         ZZ         SIGXX       SIGYY       SIGZZ       TAUXY       TAUYZ       TAUZX       SIGV
  +3.19E+04  +4.79E+04  +1.41E+05  +2.969E+03  +2.014E+04  +2.575E+03  +1.248E+03  -4.569E+03  -1.383E+03  +1.936E+04
  +3.15E+04  +6.48E+04  +1.58E+05  +2.969E+03  +2.014E+04  +2.575E+03  +1.248E+03  -4.569E+03  -1.383E+03  +1.936E+04
  +3.25E+04  +4.44E+04  +1.60E+05  +2.969E+03  +2.014E+04  +2.575E+03  +1.248E+03  -4.569E+03  -1.383E+03  +1.936E+04
  +1.54E+04  +5.48E+04  +1.50E+05  +2.969E+03  +2.014E+04  +2.575E+03  +1.248E+03  -4.569E+03  -1.383E+03  +1.936E+04

element # = 657     type =4-n tetrahedron
 XX         YY         ZZ         SIGXX       SIGYY       SIGZZ       TAUXY       TAUYZ       TAUZX       SIGV
  +1.23E+04  +7.24E+05  +1.19E+05  -2.298E+01  +7.299E+02  -3.654E+02  -6.572E+01  -8.888E+02  -3.348E+00  +1.823E+03
  +3.17E+04  +7.20E+05  +1.46E+05  -2.298E+01  +7.299E+02  -3.654E+02  -6.572E+01  -8.888E+02  -3.348E+00  +1.823E+03
  +1.23E+04  +7.34E+05  +1.41E+05  -2.298E+01  +7.299E+02  -3.654E+02  -6.572E+01  -8.888E+02  -3.348E+00  +1.823E+03
  +3.24E+04  +7.45E+05  +1.30E+05  -2.298E+01  +7.299E+02  -3.654E+02  -6.572E+01  -8.888E+02  -3.348E+00  +1.823E+03

element # = 658     type =4-n tetrahedron
 XX         YY         ZZ         SIGXX       SIGYY       SIGZZ       TAUXY       TAUYZ       TAUZX       SIGV
  +3.78E+04  +9.61E+05  +1.12E+05  +2.361E+01  +1.079E+01  -2.306E+02  -2.792E+00  -1.007E+02  -2.849E+00  +3.033E+02
  +3.84E+04  +9.64E+05  +9.02E+04  +2.361E+01  +1.079E+01  -2.306E+02  -2.792E+00  -1.007E+02  -2.849E+00  +3.033E+02
  +3.73E+04  +9.82E+05  +1.00E+05  +2.361E+01  +1.079E+01  -2.306E+02  -2.792E+00  -1.007E+02  -2.849E+00  +3.033E+02
  +1.82E+04  +9.64E+05  +1.00E+05  +2.361E+01  +1.079E+01  -2.306E+02  -2.792E+00  -1.007E+02  -2.849E+00  +3.033E+02

element # = 659     type =4-n tetrahedron
 XX         YY         ZZ         SIGXX       SIGYY       SIGZZ       TAUXY       TAUYZ       TAUZX       SIGV
  +5.60E+03  +8.90E+05  +6.84E+04  +5.837E+01  +4.177E+01  -9.056E+01  -1.205E+01  -3.747E+02  +2.265E+01  +6.656E+02
  +2.37E+04  +9.02E+05  +8.19E+04  +5.837E+01  +4.177E+01  -9.056E+01  -1.205E+01  -3.747E+02  +2.265E+01  +6.656E+02
  +5.60E+03  +8.79E+05  +9.05E+04  +5.837E+01  +4.177E+01  -9.056E+01  -1.205E+01  -3.747E+02  +2.265E+01  +6.656E+02
  +5.60E+03  +9.02E+05  +9.05E+04  +5.837E+01  +4.177E+01  -9.056E+01  -1.205E+01  -3.747E+02  +2.265E+01  +6.656E+02

element # = 660     type =4-n tetrahedron
 XX         YY         ZZ         SIGXX       SIGYY       SIGZZ       TAUXY       TAUYZ       TAUZX       SIGV
  +6.02E+03  +7.14E+05  +1.22E+05  -8.445E+01  +1.414E+03  -2.221E+02  +9.285E+00  -9.750E+02  +9.346E+01  +2.313E+03
  +2.55E+04  +7.11E+05  +1.50E+05  -8.445E+01  +1.414E+03  -2.221E+02  +9.285E+00  -9.750E+02  +9.346E+01  +2.313E+03
  +6.02E+03  +7.03E+05  +1.45E+05  -8.445E+01  +1.414E+03  -2.221E+02  +9.285E+00  -9.750E+02  +9.346E+01  +2.313E+03
  +6.02E+03  +7.24E+05  +1.45E+05  -8.445E+01  +1.414E+03  -2.221E+02  +9.285E+00  -9.750E+02  +9.346E+01  +2.313E+03

element # = 661     type =4-n tetrahedron
 XX         YY         ZZ         SIGXX       SIGYY       SIGZZ       TAUXY       TAUYZ       TAUZX       SIGV
  +6.24E+03  +7.53E+05  +1.10E+05  -1.466E+02  +2.755E+01  -4.439E+02  +8.057E+01  -9.071E+02  +1.318E+02  +1.646E+03
  +2.64E+04  +7.53E+05  +1.21E+05  -1.466E+02  +2.755E+01  -4.439E+02  +8.057E+01  -9.071E+02  +1.318E+02  +1.646E+03
  +6.24E+03  +7.31E+05  +1.10E+05  -1.466E+02  +2.755E+01  -4.439E+02  +8.057E+01  -9.071E+02  +1.318E+02  +1.646E+03
  +6.24E+03  +7.42E+05  +1.33E+05  -1.466E+02  +2.755E+01  -4.439E+02  +8.057E+01  -9.071E+02  +1.318E+02  +1.646E+03

element # = 662     type =4-n tetrahedron
 XX         YY         ZZ         SIGXX       SIGYY       SIGZZ       TAUXY       TAUYZ       TAUZX       SIGV
  +6.24E+03  +7.63E+05  +1.17E+05  +3.181E+02  +1.137E+03  -6.540E+01  -3.120E+01  -8.194E+02  +1.371E+02  +1.790E+03
  +6.24E+03  +7.74E+05  +1.39E+05  +3.181E+02  +1.137E+03  -6.540E+01  -3.120E+01  -8.194E+02  +1.371E+02  +1.790E+03
  +2.64E+04  +7.63E+05  +1.28E+05  +3.181E+02  +1.137E+03  -6.540E+01  -3.120E+01  -8.194E+02  +1.371E+02  +1.790E+03
  +6.24E+03  +7.52E+05  +1.39E+05  +3.181E+02  +1.137E+03  -6.540E+01  -3.120E+01  -8.194E+02  +1.371E+02  +1.790E+03

element # = 663     type =4-n tetrahedron
 XX         YY         ZZ         SIGXX       SIGYY       SIGZZ       TAUXY       TAUYZ       TAUZX       SIGV
  +7.10E+03  +7.73E+05  +1.59E+05  -1.938E+02  +8.327E+02  -5.714E+02  -9.731E+01  -4.243E+02  +5.892E+01  +1.471E+03
  +3.01E+04  +7.62E+05  +1.66E+05  -1.938E+02  +8.327E+02  -5.714E+02  -9.731E+01  -4.243E+02  +5.892E+01  +1.471E+03
  +7.10E+03  +7.52E+05  +1.59E+05  -1.938E+02  +8.327E+02  -5.714E+02  -9.731E+01  -4.243E+02  +5.892E+01  +1.471E+03
  +7.10E+03  +7.62E+05  +1.81E+05  -1.938E+02  +8.327E+02  -5.714E+02  -9.731E+01  -4.243E+02  +5.892E+01  +1.471E+03

element # = 664     type =4-n tetrahedron
 XX         YY         ZZ         SIGXX       SIGYY       SIGZZ       TAUXY       TAUYZ       TAUZX       SIGV
  +9.37E+04  +3.93E+05  +6.99E+04  +3.727E+02  -1.771E+03  -1.714E+02  +2.493E+02  -8.526E+02  +6.642E+02  +2.723E+03
  +6.02E+04  +3.71E+05  +7.82E+04  +3.727E+02  -1.771E+03  -1.714E+02  +2.493E+02  -8.526E+02  +6.642E+02  +2.723E+03
  +6.04E+04  +3.91E+05  +5.87E+04  +3.727E+02  -1.771E+03  -1.714E+02  +2.493E+02  -8.526E+02  +6.642E+02  +2.723E+03
  +5.79E+04  +3.96E+05  +8.52E+04  +3.727E+02  -1.771E+03  -1.714E+02  +2.493E+02  -8.526E+02  +6.642E+02  +2.723E+03

element # = 665     type =4-n tetrahedron
 XX         YY         ZZ         SIGXX       SIGYY       SIGZZ       TAUXY       TAUYZ       TAUZX       SIGV
  +5.41E+03  +6.45E+05  +3.49E+04  -7.903E+02  -4.302E+03  -4.187E+02  +3.859E+02  -6.227E+02  +1.721E+01  +3.923E+03
  +5.41E+03  +6.35E+05  +1.25E+04  -7.903E+02  -4.302E+03  -4.187E+02  +3.859E+02  -6.227E+02  +1.721E+01  +3.923E+03
  +2.29E+04  +6.53E+05  +3.06E+04  -7.903E+02  -4.302E+03  -4.187E+02  +3.859E+02  -6.227E+02  +1.721E+01  +3.923E+03
  +5.41E+03  +6.56E+05  +1.25E+04  -7.903E+02  -4.302E+03  -4.187E+02  +3.859E+02  -6.227E+02  +1.721E+01  +3.923E+03

element # = 666     type =4-n tetrahedron
 XX         YY         ZZ         SIGXX       SIGYY       SIGZZ       TAUXY       TAUYZ       TAUZX       SIGV
  +1.78E+05  +5.36E+05  +3.80E+04  -9.153E+02  -6.998E+03  -5.473E+02  +4.219E+02  -1.216E+03  -3.025E-01  +6.659E+03
  +1.55E+05  +5.15E+05  +1.57E+04  -9.153E+02  -6.998E+03  -5.473E+02  +4.219E+02  -1.216E+03  -3.025E-01  +6.659E+03
  +1.55E+05  +5.36E+05  +1.57E+04  -9.153E+02  -6.998E+03  -5.473E+02  +4.219E+02  -1.216E+03  -3.025E-01  +6.659E+03
  +1.50E+05  +5.21E+05  +4.41E+04  -9.153E+02  -6.998E+03  -5.473E+02  +4.219E+02  -1.216E+03  -3.025E-01  +6.659E+03

element # = 667     type =4-n tetrahedron
 XX         YY         ZZ         SIGXX       SIGYY       SIGZZ       TAUXY       TAUYZ       TAUZX       SIGV
  +1.93E+05  +8.72E+05  +6.98E+03  +1.605E+00  -4.720E+02  -7.764E+01  -9.436E+01  -1.628E+02  -3.314E+01  +5.500E+02
  +1.93E+05  +8.93E+05  +6.98E+03  +1.605E+00  -4.720E+02  -7.764E+01  -9.436E+01  -1.628E+02  -3.314E+01  +5.500E+02
  +1.93E+05  +8.85E+05  +2.95E+04  +1.605E+00  -4.720E+02  -7.764E+01  -9.436E+01  -1.628E+02  -3.314E+01  +5.500E+02
  +1.70E+05  +8.85E+05  +6.98E+03  +1.605E+00  -4.720E+02  -7.764E+01  -9.436E+01  -1.628E+02  -3.314E+01  +5.500E+02

element # = 668     type =4-n tetrahedron
 XX         YY         ZZ         SIGXX       SIGYY       SIGZZ       TAUXY       TAUYZ       TAUZX       SIGV
  +1.79E+04  +9.52E+05  +9.77E+04  -3.695E+01  -9.961E+01  -3.249E+02  -1.997E-01  -2.160E+02  -1.049E+01  +4.572E+02
  +3.60E+04  +9.31E+05  +8.91E+04  -3.695E+01  -9.961E+01  -3.249E+02  -1.997E-01  -2.160E+02  -1.049E+01  +4.572E+02
  +3.75E+04  +9.48E+05  +1.09E+05  -3.695E+01  -9.961E+01  -3.249E+02  -1.997E-01  -2.160E+02  -1.049E+01  +4.572E+02
  +3.81E+04  +9.52E+05  +8.75E+04  -3.695E+01  -9.961E+01  -3.249E+02  -1.997E-01  -2.160E+02  -1.049E+01  +4.572E+02

element # = 669     type =4-n tetrahedron
 XX         YY         ZZ         SIGXX       SIGYY       SIGZZ       TAUXY       TAUYZ       TAUZX       SIGV
  +7.45E+04  +1.59E+05  +4.81E+04  -7.092E+02  -1.080E+04  -1.899E+03  +5.172E+02  -2.831E+02  -1.256E+03  +9.852E+03
  +8.28E+04  +1.97E+05  +4.94E+04  -7.092E+02  -1.080E+04  -1.899E+03  +5.172E+02  -2.831E+02  -1.256E+03  +9.852E+03
  +6.21E+04  +1.85E+05  +4.34E+04  -7.092E+02  -1.080E+04  -1.899E+03  +5.172E+02  -2.831E+02  -1.256E+03  +9.852E+03
  +8.71E+04  +1.84E+05  +2.26E+04  -7.092E+02  -1.080E+04  -1.899E+03  +5.172E+02  -2.831E+02  -1.256E+03  +9.852E+03

element # = 670     type =4-n tetrahedron
 XX         YY         ZZ         SIGXX       SIGYY       SIGZZ       TAUXY       TAUYZ       TAUZX       SIGV
  +7.94E+04  +9.77E+05  +6.53E+03  +5.522E+01  -2.017E+01  +1.878E+01  +2.159E+01  -4.567E+01  +4.480E+00  +1.095E+02
  +8.06E+04  +9.44E+05  +2.76E+04  +5.522E+01  -2.017E+01  +1.878E+01  +2.159E+01  -4.567E+01  +4.480E+00  +1.095E+02
  +8.83E+04  +9.58E+05  +6.53E+03  +5.522E+01  -2.017E+01  +1.878E+01  +2.159E+01  -4.567E+01  +4.480E+00  +1.095E+02
  +6.70E+04  +9.52E+05  +6.53E+03  +5.522E+01  -2.017E+01  +1.878E+01  +2.159E+01  -4.567E+01  +4.480E+00  +1.095E+02

element # = 671     type =4-n tetrahedron
 XX         YY         ZZ         SIGXX       SIGYY       SIGZZ       TAUXY       TAUYZ       TAUZX       SIGV
  +7.44E+04  +5.55E+05  +7.17E+04  -6.714E+02  -4.130E+03  -1.245E+01  -3.028E+02  -9.659E+02  +5.323E+02  +4.313E+03
  +5.76E+04  +5.44E+05  +5.53E+04  -6.714E+02  -4.130E+03  -1.245E+01  -3.028E+02  -9.659E+02  +5.323E+02  +4.313E+03
  +5.38E+04  +5.76E+05  +5.25E+04  -6.714E+02  -4.130E+03  -1.245E+01  -3.028E+02  -9.659E+02  +5.323E+02  +4.313E+03
  +5.24E+04  +5.65E+05  +7.46E+04  -6.714E+02  -4.130E+03  -1.245E+01  -3.028E+02  -9.659E+02  +5.323E+02  +4.313E+03

element # = 672     type =4-n tetrahedron
 XX         YY         ZZ         SIGXX       SIGYY       SIGZZ       TAUXY       TAUYZ       TAUZX       SIGV
  +1.22E+04  +2.31E+05  +1.09E+04  -7.041E+02  -1.505E+04  -5.330E+02  +3.900E+02  -1.639E+03  -6.497E+00  +1.473E+04
  +1.22E+04  +2.20E+05  +2.79E+04  -7.041E+02  -1.505E+04  -5.330E+02  +3.900E+02  -1.639E+03  -6.497E+00  +1.473E+04
  +2.92E+04  +2.28E+05  +2.93E+04  -7.041E+02  -1.505E+04  -5.330E+02  +3.900E+02  -1.639E+03  -6.497E+00  +1.473E+04
  +3.46E+04  +2.19E+05  +1.09E+04  -7.041E+02  -1.505E+04  -5.330E+02  +3.900E+02  -1.639E+03  -6.497E+00  +1.473E+04

element # = 673     type =4-n tetrahedron
 XX         YY         ZZ         SIGXX       SIGYY       SIGZZ       TAUXY       TAUYZ       TAUZX       SIGV
  +7.16E+04  +2.08E+05  +1.36E+05  -2.855E+03  -1.048E+03  -1.484E+03  -1.759E+03  -1.348E+03  +1.049E+03  +4.550E+03
  +5.04E+04  +2.20E+05  +1.39E+05  -2.855E+03  -1.048E+03  -1.484E+03  -1.759E+03  -1.348E+03  +1.049E+03  +4.550E+03
  +5.44E+04  +1.95E+05  +1.18E+05  -2.855E+03  -1.048E+03  -1.484E+03  -1.759E+03  -1.348E+03  +1.049E+03  +4.550E+03
  +5.22E+04  +2.27E+05  +1.17E+05  -2.855E+03  -1.048E+03  -1.484E+03  -1.759E+03  -1.348E+03  +1.049E+03  +4.550E+03

element # = 674     type =4-n tetrahedron
 XX         YY         ZZ         SIGXX       SIGYY       SIGZZ       TAUXY       TAUYZ       TAUZX       SIGV
  +2.64E+04  +9.07E+05  +1.47E+05  +3.218E+01  +3.029E+02  -2.708E+02  +8.099E+00  -3.185E+02  +6.096E+00  +7.428E+02
  +1.22E+04  +9.05E+05  +1.19E+05  +3.218E+01  +3.029E+02  -2.708E+02  +8.099E+00  -3.185E+02  +6.096E+00  +7.428E+02
  +1.22E+04  +8.93E+05  +1.42E+05  +3.218E+01  +3.029E+02  -2.708E+02  +8.099E+00  -3.185E+02  +6.096E+00  +7.428E+02
  +3.75E+04  +8.89E+05  +1.32E+05  +3.218E+01  +3.029E+02  -2.708E+02  +8.099E+00  -3.185E+02  +6.096E+00  +7.428E+02

element # = 675     type =4-n tetrahedron
 XX         YY         ZZ         SIGXX       SIGYY       SIGZZ       TAUXY       TAUYZ       TAUZX       SIGV
  +1.79E+05  +3.63E+05  +6.03E+04  -8.413E+02  -5.623E+03  -1.113E+03  -9.565E+01  -1.764E+03  -5.540E+02  +5.650E+03
  +1.46E+05  +3.82E+05  +6.74E+04  -8.413E+02  -5.623E+03  -1.113E+03  -9.565E+01  -1.764E+03  -5.540E+02  +5.650E+03
  +1.79E+05  +3.74E+05  +8.26E+04  -8.413E+02  -5.623E+03  -1.113E+03  -9.565E+01  -1.764E+03  -5.540E+02  +5.650E+03
  +1.45E+05  +3.55E+05  +6.39E+04  -8.413E+02  -5.623E+03  -1.113E+03  -9.565E+01  -1.764E+03  -5.540E+02  +5.650E+03

element # = 676     type =4-n tetrahedron
 XX         YY         ZZ         SIGXX       SIGYY       SIGZZ       TAUXY       TAUYZ       TAUZX       SIGV
  +1.47E+05  +8.20E+05  +5.28E+04  +1.783E+02  -3.824E+02  +9.883E+01  +4.038E+01  -4.962E+02  +8.854E+01  +1.021E+03
  +1.75E+05  +7.92E+05  +4.75E+04  +1.783E+02  -3.824E+02  +9.883E+01  +4.038E+01  -4.962E+02  +8.854E+01  +1.021E+03
  +1.53E+05  +7.92E+05  +2.50E+04  +1.783E+02  -3.824E+02  +9.883E+01  +4.038E+01  -4.962E+02  +8.854E+01  +1.021E+03
  +1.44E+05  +7.79E+05  +5.59E+04  +1.783E+02  -3.824E+02  +9.883E+01  +4.038E+01  -4.962E+02  +8.854E+01  +1.021E+03

element # = 677     type =4-n tetrahedron
 XX         YY         ZZ         SIGXX       SIGYY       SIGZZ       TAUXY       TAUYZ       TAUZX       SIGV
  +8.63E+04  +2.52E+05  +6.55E+03  -1.564E+03  -1.805E+04  -1.783E+03  +2.549E+02  -1.588E+01  +5.361E+02  +1.641E+04
  +6.39E+04  +2.63E+05  +6.55E+03  -1.564E+03  -1.805E+04  -1.783E+03  +2.549E+02  -1.588E+01  +5.361E+02  +1.641E+04
  +8.63E+04  +2.73E+05  +6.55E+03  -1.564E+03  -1.805E+04  -1.783E+03  +2.549E+02  -1.588E+01  +5.361E+02  +1.641E+04
  +6.41E+04  +2.68E+05  +2.78E+04  -1.564E+03  -1.805E+04  -1.783E+03  +2.549E+02  -1.588E+01  +5.361E+02  +1.641E+04

element # = 678     type =4-n tetrahedron
 XX         YY         ZZ         SIGXX       SIGYY       SIGZZ       TAUXY       TAUYZ       TAUZX       SIGV
  +1.93E+05  +3.94E+05  +1.93E+05  +6.331E+02  +1.138E+04  -4.772E+01  +3.575E+02  -6.965E+02  -8.790E+02  +1.129E+04
  +1.93E+05  +4.05E+05  +1.71E+05  +6.331E+02  +1.138E+04  -4.772E+01  +3.575E+02  -6.965E+02  -8.790E+02  +1.129E+04
  +1.93E+05  +4.15E+05  +1.93E+05  +6.331E+02  +1.138E+04  -4.772E+01  +3.575E+02  -6.965E+02  -8.790E+02  +1.129E+04
  +1.71E+05  +4.05E+05  +1.93E+05  +6.331E+02  +1.138E+04  -4.772E+01  +3.575E+02  -6.965E+02  -8.790E+02  +1.129E+04

element # = 679     type =4-n tetrahedron
 XX         YY         ZZ         SIGXX       SIGYY       SIGZZ       TAUXY       TAUYZ       TAUZX       SIGV
  +1.06E+05  +3.22E+05  +5.29E+04  +1.443E+03  -5.469E+03  +1.919E+03  +1.415E+02  -2.462E+03  -3.417E+02  +8.360E+03
  +7.26E+04  +3.14E+05  +4.81E+04  +1.443E+03  -5.469E+03  +1.919E+03  +1.415E+02  -2.462E+03  -3.417E+02  +8.360E+03
  +9.17E+04  +3.02E+05  +6.67E+04  +1.443E+03  -5.469E+03  +1.919E+03  +1.415E+02  -2.462E+03  -3.417E+02  +8.360E+03
  +9.52E+04  +2.98E+05  +2.69E+04  +1.443E+03  -5.469E+03  +1.919E+03  +1.415E+02  -2.462E+03  -3.417E+02  +8.360E+03

element # = 680     type =4-n tetrahedron
 XX         YY         ZZ         SIGXX       SIGYY       SIGZZ       TAUXY       TAUYZ       TAUZX       SIGV
  +2.56E+04  +9.46E+05  +1.22E+05  -4.455E+01  -5.359E+01  -3.935E+02  -5.516E+00  -2.457E+02  +7.555E-01  +5.476E+02
  +6.05E+03  +9.43E+05  +1.31E+05  -4.455E+01  -5.359E+01  -3.935E+02  -5.516E+00  -2.457E+02  +7.555E-01  +5.476E+02
  +6.05E+03  +9.29E+05  +1.10E+05  -4.455E+01  -5.359E+01  -3.935E+02  -5.516E+00  -2.457E+02  +7.555E-01  +5.476E+02
  +6.05E+03  +9.50E+05  +1.10E+05  -4.455E+01  -5.359E+01  -3.935E+02  -5.516E+00  -2.457E+02  +7.555E-01  +5.476E+02

element # = 681     type =4-n tetrahedron
 XX         YY         ZZ         SIGXX       SIGYY       SIGZZ       TAUXY       TAUYZ       TAUZX       SIGV
  +1.17E+04  +9.45E+05  +1.01E+05  -1.102E+01  +2.063E+00  -2.415E+02  +2.463E+00  -2.593E+02  -8.842E+00  +5.081E+02
  +2.98E+04  +9.24E+05  +9.23E+04  -1.102E+01  +2.063E+00  -2.415E+02  +2.463E+00  -2.593E+02  -8.842E+00  +5.081E+02
  +1.17E+04  +9.24E+05  +1.01E+05  -1.102E+01  +2.063E+00  -2.415E+02  +2.463E+00  -2.593E+02  -8.842E+00  +5.081E+02
  +3.13E+04  +9.42E+05  +1.12E+05  -1.102E+01  +2.063E+00  -2.415E+02  +2.463E+00  -2.593E+02  -8.842E+00  +5.081E+02

element # = 682     type =4-n tetrahedron
 XX         YY         ZZ         SIGXX       SIGYY       SIGZZ       TAUXY       TAUYZ       TAUZX       SIGV
  +1.08E+05  +9.87E+05  +3.21E+04  +3.612E+01  -3.434E+01  -4.911E+01  +2.306E-01  -3.939E+01  +3.407E+00  +1.045E+02
  +1.17E+05  +9.87E+05  +1.30E+04  +3.612E+01  -3.434E+01  -4.911E+01  +2.306E-01  -3.939E+01  +3.407E+00  +1.045E+02
  +1.08E+05  +9.69E+05  +1.30E+04  +3.612E+01  -3.434E+01  -4.911E+01  +2.306E-01  -3.939E+01  +3.407E+00  +1.045E+02
  +1.25E+05  +9.63E+05  +3.59E+04  +3.612E+01  -3.434E+01  -4.911E+01  +2.306E-01  -3.939E+01  +3.407E+00  +1.045E+02

element # = 683     type =4-n tetrahedron
 XX         YY         ZZ         SIGXX       SIGYY       SIGZZ       TAUXY       TAUYZ       TAUZX       SIGV
  +5.91E+04  +4.18E+05  +3.28E+04  +6.598E+02  -6.408E+03  -2.662E+02  +6.962E+02  -2.465E+02  +2.522E+02  +6.789E+03
  +5.87E+04  +4.44E+05  +1.44E+04  +6.598E+02  -6.408E+03  -2.662E+02  +6.962E+02  -2.465E+02  +2.522E+02  +6.789E+03
  +8.11E+04  +4.33E+05  +1.44E+04  +6.598E+02  -6.408E+03  -2.662E+02  +6.962E+02  -2.465E+02  +2.522E+02  +6.789E+03
  +6.42E+04  +4.51E+05  +4.28E+04  +6.598E+02  -6.408E+03  -2.662E+02  +6.962E+02  -2.465E+02  +2.522E+02  +6.789E+03

element # = 684     type =4-n tetrahedron
 XX         YY         ZZ         SIGXX       SIGYY       SIGZZ       TAUXY       TAUYZ       TAUZX       SIGV
  +4.33E+04  +1.23E+05  +1.52E+05  -4.646E+02  +1.365E+04  -3.229E+03  +2.851E+02  -3.943E+03  -1.254E+03  +1.725E+04
  +3.55E+04  +9.53E+04  +1.56E+05  -4.646E+02  +1.365E+04  -3.229E+03  +2.851E+02  -3.943E+03  -1.254E+03  +1.725E+04
  +4.19E+04  +1.03E+05  +1.36E+05  -4.646E+02  +1.365E+04  -3.229E+03  +2.851E+02  -3.943E+03  -1.254E+03  +1.725E+04
  +1.93E+04  +1.12E+05  +1.49E+05  -4.646E+02  +1.365E+04  -3.229E+03  +2.851E+02  -3.943E+03  -1.254E+03  +1.725E+04

element # = 685     type =4-n tetrahedron
 XX         YY         ZZ         SIGXX       SIGYY       SIGZZ       TAUXY       TAUYZ       TAUZX       SIGV
  +8.94E+04  +3.35E+05  +1.46E+04  -7.167E+02  -1.223E+04  +1.163E+03  +2.810E+01  -9.270E+02  -1.089E+02  +1.266E+04
  +1.00E+05  +3.37E+05  +4.06E+04  -7.167E+02  -1.223E+04  +1.163E+03  +2.810E+01  -9.270E+02  -1.089E+02  +1.266E+04
  +6.68E+04  +3.30E+05  +3.58E+04  -7.167E+02  -1.223E+04  +1.163E+03  +2.810E+01  -9.270E+02  -1.089E+02  +1.266E+04
  +6.71E+04  +3.46E+05  +1.46E+04  -7.167E+02  -1.223E+04  +1.163E+03  +2.810E+01  -9.270E+02  -1.089E+02  +1.266E+04

element # = 686     type =4-n tetrahedron
 XX         YY         ZZ         SIGXX       SIGYY       SIGZZ       TAUXY       TAUYZ       TAUZX       SIGV
  +6.46E+03  +5.64E+05  +4.17E+04  +3.004E+02  -2.411E+03  +3.737E+02  -4.451E+01  -6.869E+02  +2.245E+02  +3.021E+03
  +6.46E+03  +5.75E+05  +1.92E+04  +3.004E+02  -2.411E+03  +3.737E+02  -4.451E+01  -6.869E+02  +2.245E+02  +3.021E+03
  +2.74E+04  +5.85E+05  +3.66E+04  +3.004E+02  -2.411E+03  +3.737E+02  -4.451E+01  -6.869E+02  +2.245E+02  +3.021E+03
  +6.46E+03  +5.85E+05  +4.16E+04  +3.004E+02  -2.411E+03  +3.737E+02  -4.451E+01  -6.869E+02  +2.245E+02  +3.021E+03

element # = 687     type =4-n tetrahedron
 XX         YY         ZZ         SIGXX       SIGYY       SIGZZ       TAUXY       TAUYZ       TAUZX       SIGV
  +4.99E+04  +8.67E+05  +1.12E+05  -6.872E+01  -2.019E+02  -3.579E+02  +2.842E+01  -4.148E+02  -2.398E+01  +7.637E+02
  +4.34E+04  +8.44E+05  +9.40E+04  -6.872E+01  -2.019E+02  -3.579E+02  +2.842E+01  -4.148E+02  -2.398E+01  +7.637E+02
  +6.02E+04  +8.63E+05  +9.03E+04  -6.872E+01  -2.019E+02  -3.579E+02  +2.842E+01  -4.148E+02  -2.398E+01  +7.637E+02
  +2.46E+04  +8.60E+05  +9.95E+04  -6.872E+01  -2.019E+02  -3.579E+02  +2.842E+01  -4.148E+02  -2.398E+01  +7.637E+02

element # = 688     type =4-n tetrahedron
 XX         YY         ZZ         SIGXX       SIGYY       SIGZZ       TAUXY       TAUYZ       TAUZX       SIGV
  +1.92E+05  +8.76E+05  +1.43E+05  +8.842E+01  +4.024E+02  -2.314E+02  +1.008E+01  -4.883E+02  +1.702E+01  +1.009E+03
  +1.66E+05  +8.77E+05  +1.43E+05  +8.842E+01  +4.024E+02  -2.314E+02  +1.008E+01  -4.883E+02  +1.702E+01  +1.009E+03
  +1.92E+05  +8.54E+05  +1.43E+05  +8.842E+01  +4.024E+02  -2.314E+02  +1.008E+01  -4.883E+02  +1.702E+01  +1.009E+03
  +1.92E+05  +8.65E+05  +1.21E+05  +8.842E+01  +4.024E+02  -2.314E+02  +1.008E+01  -4.883E+02  +1.702E+01  +1.009E+03

element # = 689     type =4-n tetrahedron
 XX         YY         ZZ         SIGXX       SIGYY       SIGZZ       TAUXY       TAUYZ       TAUZX       SIGV
  +5.64E+03  +8.74E+05  +5.61E+04  -8.465E+01  -5.022E+02  -3.135E+02  -5.181E+00  -4.715E+02  +5.706E+00  +8.935E+02
  +5.64E+03  +8.52E+05  +5.60E+04  -8.465E+01  -5.022E+02  -3.135E+02  -5.181E+00  -4.715E+02  +5.706E+00  +8.935E+02
  +5.64E+03  +8.63E+05  +7.83E+04  -8.465E+01  -5.022E+02  -3.135E+02  -5.181E+00  -4.715E+02  +5.706E+00  +8.935E+02
  +2.39E+04  +8.68E+05  +5.23E+04  -8.465E+01  -5.022E+02  -3.135E+02  -5.181E+00  -4.715E+02  +5.706E+00  +8.935E+02

element # = 690     type =4-n tetrahedron
 XX         YY         ZZ         SIGXX       SIGYY       SIGZZ       TAUXY       TAUYZ       TAUZX       SIGV
  +1.39E+04  +2.99E+05  +2.96E+04  -8.428E+01  -1.237E+04  -1.844E+02  +4.680E+01  -9.633E+02  +2.964E+01  +1.235E+04
  +3.63E+04  +3.00E+05  +1.20E+04  -8.428E+01  -1.237E+04  -1.844E+02  +4.680E+01  -9.633E+02  +2.964E+01  +1.235E+04
  +1.39E+04  +2.90E+05  +1.20E+04  -8.428E+01  -1.237E+04  -1.844E+02  +4.680E+01  -9.633E+02  +2.964E+01  +1.235E+04
  +3.65E+04  +2.84E+05  +3.32E+04  -8.428E+01  -1.237E+04  -1.844E+02  +4.680E+01  -9.633E+02  +2.964E+01  +1.235E+04

element # = 691     type =4-n tetrahedron
 XX         YY         ZZ         SIGXX       SIGYY       SIGZZ       TAUXY       TAUYZ       TAUZX       SIGV
  +5.81E+03  +8.35E+05  +6.92E+04  +1.107E+02  +7.536E+01  -3.026E+01  +2.263E+00  -5.961E+02  +4.045E+01  +1.043E+03
  +5.81E+03  +8.24E+05  +9.14E+04  +1.107E+02  +7.536E+01  -3.026E+01  +2.263E+00  -5.961E+02  +4.045E+01  +1.043E+03
  +5.81E+03  +8.46E+05  +9.14E+04  +1.107E+02  +7.536E+01  -3.026E+01  +2.263E+00  -5.961E+02  +4.045E+01  +1.043E+03
  +2.46E+04  +8.30E+05  +8.60E+04  +1.107E+02  +7.536E+01  -3.026E+01  +2.263E+00  -5.961E+02  +4.045E+01  +1.043E+03

element # = 692     type =4-n tetrahedron
 XX         YY         ZZ         SIGXX       SIGYY       SIGZZ       TAUXY       TAUYZ       TAUZX       SIGV
  +1.12E+04  +8.85E+05  +6.03E+04  +7.580E+01  -2.066E+00  -6.636E+01  +9.921E-01  -3.610E+02  -6.639E+00  +6.375E+02
  +2.94E+04  +8.97E+05  +7.39E+04  +7.580E+01  -2.066E+00  -6.636E+01  +9.921E-01  -3.610E+02  -6.639E+00  +6.375E+02
  +2.95E+04  +8.79E+05  +5.65E+04  +7.580E+01  -2.066E+00  -6.636E+01  +9.921E-01  -3.610E+02  -6.639E+00  +6.375E+02
  +1.12E+04  +8.74E+05  +8.25E+04  +7.580E+01  -2.066E+00  -6.636E+01  +9.921E-01  -3.610E+02  -6.639E+00  +6.375E+02

element # = 693     type =4-n tetrahedron
 XX         YY         ZZ         SIGXX       SIGYY       SIGZZ       TAUXY       TAUYZ       TAUZX       SIGV
  +7.89E+04  +4.03E+05  +1.56E+05  -1.096E+02  +5.335E+03  -6.304E+02  +1.470E+02  -5.999E+02  +2.325E+02  +5.835E+03
  +1.17E+05  +4.06E+05  +1.52E+05  -1.096E+02  +5.335E+03  -6.304E+02  +1.470E+02  -5.999E+02  +2.325E+02  +5.835E+03
  +9.96E+04  +4.21E+05  +1.75E+05  -1.096E+02  +5.335E+03  -6.304E+02  +1.470E+02  -5.999E+02  +2.325E+02  +5.835E+03
  +1.01E+05  +4.30E+05  +1.39E+05  -1.096E+02  +5.335E+03  -6.304E+02  +1.470E+02  -5.999E+02  +2.325E+02  +5.835E+03

element # = 694     type =4-n tetrahedron
 XX         YY         ZZ         SIGXX       SIGYY       SIGZZ       TAUXY       TAUYZ       TAUZX       SIGV
  +6.40E+04  +1.17E+05  +1.12E+05  -8.202E+02  +3.005E+03  -5.212E+02  +4.991E+01  -3.708E+03  +1.459E+03  +7.824E+03
  +6.42E+04  +1.52E+05  +1.06E+05  -8.202E+02  +3.005E+03  -5.212E+02  +4.991E+01  -3.708E+03  +1.459E+03  +7.824E+03
  +7.35E+04  +1.33E+05  +8.37E+04  -8.202E+02  +3.005E+03  -5.212E+02  +4.991E+01  -3.708E+03  +1.459E+03  +7.824E+03
  +9.77E+04  +1.34E+05  +1.20E+05  -8.202E+02  +3.005E+03  -5.212E+02  +4.991E+01  -3.708E+03  +1.459E+03  +7.824E+03

element # = 695     type =4-n tetrahedron
 XX         YY         ZZ         SIGXX       SIGYY       SIGZZ       TAUXY       TAUYZ       TAUZX       SIGV
  +5.77E+04  +1.57E+05  +1.70E+05  -1.277E+03  +1.378E+04  -9.558E+02  +5.938E+02  -1.603E+03  +6.194E+02  +1.523E+04
  +5.62E+04  +1.67E+05  +1.89E+05  -1.277E+03  +1.378E+04  -9.558E+02  +5.938E+02  -1.603E+03  +6.194E+02  +1.523E+04
  +5.19E+04  +1.77E+05  +1.73E+05  -1.277E+03  +1.378E+04  -9.558E+02  +5.938E+02  -1.603E+03  +6.194E+02  +1.523E+04
  +7.85E+04  +1.78E+05  +1.89E+05  -1.277E+03  +1.378E+04  -9.558E+02  +5.938E+02  -1.603E+03  +6.194E+02  +1.523E+04

element # = 696     type =4-n tetrahedron
 XX         YY         ZZ         SIGXX       SIGYY       SIGZZ       TAUXY       TAUYZ       TAUZX       SIGV
  +1.25E+05  +1.50E+05  +5.49E+04  +6.914E+02  -9.184E+03  +3.282E+03  -2.894E+02  -1.392E+03  -1.520E+03  +1.195E+04
  +1.27E+05  +1.13E+05  +5.31E+04  +6.914E+02  -9.184E+03  +3.282E+03  -2.894E+02  -1.392E+03  -1.520E+03  +1.195E+04
  +1.08E+05  +1.35E+05  +2.55E+04  +6.914E+02  -9.184E+03  +3.282E+03  -2.894E+02  -1.392E+03  -1.520E+03  +1.195E+04
  +9.51E+04  +1.32E+05  +5.09E+04  +6.914E+02  -9.184E+03  +3.282E+03  -2.894E+02  -1.392E+03  -1.520E+03  +1.195E+04

element # = 697     type =4-n tetrahedron
 XX         YY         ZZ         SIGXX       SIGYY       SIGZZ       TAUXY       TAUYZ       TAUZX       SIGV
  +4.96E+04  +2.12E+05  +1.48E+05  +5.908E+02  +9.530E+03  +4.138E+02  -7.108E+02  -4.243E+03  +1.686E+03  +1.206E+04
  +7.08E+04  +2.00E+05  +1.44E+05  +5.908E+02  +9.530E+03  +4.138E+02  -7.108E+02  -4.243E+03  +1.686E+03  +1.206E+04
  +5.37E+04  +1.87E+05  +1.26E+05  +5.908E+02  +9.530E+03  +4.138E+02  -7.108E+02  -4.243E+03  +1.686E+03  +1.206E+04
  +4.90E+04  +1.93E+05  +1.52E+05  +5.908E+02  +9.530E+03  +4.138E+02  -7.108E+02  -4.243E+03  +1.686E+03  +1.206E+04

element # = 698     type =4-n tetrahedron
 XX         YY         ZZ         SIGXX       SIGYY       SIGZZ       TAUXY       TAUYZ       TAUZX       SIGV
  +1.00E+05  +5.59E+05  +1.04E+05  -8.637E+02  +4.449E+02  -1.101E+03  +1.448E+02  -2.162E+03  +3.251E+02  +4.059E+03
  +9.69E+04  +5.57E+05  +1.34E+05  -8.637E+02  +4.449E+02  -1.101E+03  +1.448E+02  -2.162E+03  +3.251E+02  +4.059E+03
  +1.05E+05  +5.88E+05  +1.22E+05  -8.637E+02  +4.449E+02  -1.101E+03  +1.448E+02  -2.162E+03  +3.251E+02  +4.059E+03
  +1.23E+05  +5.64E+05  +1.31E+05  -8.637E+02  +4.449E+02  -1.101E+03  +1.448E+02  -2.162E+03  +3.251E+02  +4.059E+03

element # = 699     type =4-n tetrahedron
 XX         YY         ZZ         SIGXX       SIGYY       SIGZZ       TAUXY       TAUYZ       TAUZX       SIGV
  +4.29E+04  +3.40E+05  +5.09E+04  +2.387E+02  -7.634E+03  +8.980E+02  +1.983E+02  -2.226E+03  -7.913E+02  +9.190E+03
  +4.36E+04  +3.73E+05  +4.80E+04  +2.387E+02  -7.634E+03  +8.980E+02  +1.983E+02  -2.226E+03  -7.913E+02  +9.190E+03
  +4.34E+04  +3.53E+05  +6.75E+04  +2.387E+02  -7.634E+03  +8.980E+02  +1.983E+02  -2.226E+03  -7.913E+02  +9.190E+03
  +2.08E+04  +3.54E+05  +4.83E+04  +2.387E+02  -7.634E+03  +8.980E+02  +1.983E+02  -2.226E+03  -7.913E+02  +9.190E+03

element # = 700     type =4-n tetrahedron
 XX         YY         ZZ         SIGXX       SIGYY       SIGZZ       TAUXY       TAUYZ       TAUZX       SIGV
  +1.18E+05  +9.81E+05  +1.96E+05  -7.074E+01  +2.236E+01  -5.167E+02  -2.068E+01  -2.354E+01  +1.850E+01  +5.030E+02
  +1.07E+05  +9.61E+05  +1.81E+05  -7.074E+01  +2.236E+01  -5.167E+02  -2.068E+01  -2.354E+01  +1.850E+01  +5.030E+02
  +1.09E+05  +9.62E+05  +1.96E+05  -7.074E+01  +2.236E+01  -5.167E+02  -2.068E+01  -2.354E+01  +1.850E+01  +5.030E+02
  +1.30E+05  +9.56E+05  +1.96E+05  -7.074E+01  +2.236E+01  -5.167E+02  -2.068E+01  -2.354E+01  +1.850E+01  +5.030E+02

element # = 701     type =4-n tetrahedron
 XX         YY         ZZ         SIGXX       SIGYY       SIGZZ       TAUXY       TAUYZ       TAUZX       SIGV
  +1.08E+05  +9.88E+05  +1.96E+05  -2.180E+01  +2.040E+01  -5.001E+02  -1.200E+01  -1.809E+01  +3.636E+00  +5.022E+02
  +9.78E+04  +9.69E+05  +1.81E+05  -2.180E+01  +2.040E+01  -5.001E+02  -1.200E+01  -1.809E+01  +3.636E+00  +5.022E+02
  +9.05E+04  +9.88E+05  +1.96E+05  -2.180E+01  +2.040E+01  -5.001E+02  -1.200E+01  -1.809E+01  +3.636E+00  +5.022E+02
  +9.95E+04  +9.70E+05  +1.96E+05  -2.180E+01  +2.040E+01  -5.001E+02  -1.200E+01  -1.809E+01  +3.636E+00  +5.022E+02

element # = 702     type =4-n tetrahedron
 XX         YY         ZZ         SIGXX       SIGYY       SIGZZ       TAUXY       TAUYZ       TAUZX       SIGV
  +1.34E+04  +5.68E+05  +1.23E+04  +1.879E+02  -4.344E+03  +8.722E+01  +3.556E+02  -7.723E+02  -1.236E+02  +4.723E+03
  +1.34E+04  +5.57E+05  +3.47E+04  +1.879E+02  -4.344E+03  +8.722E+01  +3.556E+02  -7.723E+02  -1.236E+02  +4.723E+03
  +3.43E+04  +5.79E+05  +2.97E+04  +1.879E+02  -4.344E+03  +8.722E+01  +3.556E+02  -7.723E+02  -1.236E+02  +4.723E+03
  +3.57E+04  +5.57E+05  +1.23E+04  +1.879E+02  -4.344E+03  +8.722E+01  +3.556E+02  -7.723E+02  -1.236E+02  +4.723E+03

element # = 703     type =4-n tetrahedron
 XX         YY         ZZ         SIGXX       SIGYY       SIGZZ       TAUXY       TAUYZ       TAUZX       SIGV
  +1.03E+05  +9.77E+05  +3.86E+04  +7.163E+01  -6.631E+00  -2.351E+00  +5.235E+00  -5.166E+01  -1.774E+01  +1.218E+02
  +1.20E+05  +9.53E+05  +4.25E+04  +7.163E+01  -6.631E+00  -2.351E+00  +5.235E+00  -5.166E+01  -1.774E+01  +1.218E+02
  +1.03E+05  +9.59E+05  +1.95E+04  +7.163E+01  -6.631E+00  -2.351E+00  +5.235E+00  -5.166E+01  -1.774E+01  +1.218E+02
  +9.51E+04  +9.45E+05  +4.06E+04  +7.163E+01  -6.631E+00  -2.351E+00  +5.235E+00  -5.166E+01  -1.774E+01  +1.218E+02

element # = 704     type =4-n tetrahedron
 XX         YY         ZZ         SIGXX       SIGYY       SIGZZ       TAUXY       TAUYZ       TAUZX       SIGV
  +5.28E+04  +9.80E+05  +5.22E+04  +6.183E-01  -2.475E+01  -1.172E+02  +1.999E+01  -8.823E+01  +2.753E+01  +1.959E+02
  +4.99E+04  +9.61E+05  +6.36E+04  +6.183E-01  -2.475E+01  -1.172E+02  +1.999E+01  -8.823E+01  +2.753E+01  +1.959E+02
  +6.68E+04  +9.47E+05  +5.02E+04  +6.183E-01  -2.475E+01  -1.172E+02  +1.999E+01  -8.823E+01  +2.753E+01  +1.959E+02
  +4.56E+04  +9.64E+05  +4.46E+04  +6.183E-01  -2.475E+01  -1.172E+02  +1.999E+01  -8.823E+01  +2.753E+01  +1.959E+02

element # = 705     type =4-n tetrahedron
 XX         YY         ZZ         SIGXX       SIGYY       SIGZZ       TAUXY       TAUYZ       TAUZX       SIGV
  +4.32E+04  +7.53E+05  +4.77E+04  -3.420E+01  -1.063E+03  -4.122E+02  +1.606E+01  -8.432E+02  -1.193E+01  +1.716E+03
  +1.61E+04  +7.68E+05  +5.30E+04  -3.420E+01  -1.063E+03  -4.122E+02  +1.606E+01  -8.432E+02  -1.193E+01  +1.716E+03
  +4.13E+04  +7.44E+05  +6.79E+04  -3.420E+01  -1.063E+03  -4.122E+02  +1.606E+01  -8.432E+02  -1.193E+01  +1.716E+03
  +1.61E+04  +7.47E+05  +5.30E+04  -3.420E+01  -1.063E+03  -4.122E+02  +1.606E+01  -8.432E+02  -1.193E+01  +1.716E+03

element # = 706     type =4-n tetrahedron
 XX         YY         ZZ         SIGXX       SIGYY       SIGZZ       TAUXY       TAUYZ       TAUZX       SIGV
  +5.68E+04  +3.21E+05  +6.55E+03  -1.253E+03  -1.428E+04  -4.432E+02  +2.174E+02  -1.759E+03  +3.882E+01  +1.380E+04
  +7.92E+04  +3.31E+05  +6.55E+03  -1.253E+03  -1.428E+04  -4.432E+02  +2.174E+02  -1.759E+03  +3.882E+01  +1.380E+04
  +5.65E+04  +3.26E+05  +2.77E+04  -1.253E+03  -1.428E+04  -4.432E+02  +2.174E+02  -1.759E+03  +3.882E+01  +1.380E+04
  +5.68E+04  +3.42E+05  +6.55E+03  -1.253E+03  -1.428E+04  -4.432E+02  +2.174E+02  -1.759E+03  +3.882E+01  +1.380E+04

element # = 707     type =4-n tetrahedron
 XX         YY         ZZ         SIGXX       SIGYY       SIGZZ       TAUXY       TAUYZ       TAUZX       SIGV
  +4.69E+04  +9.47E+05  +1.71E+05  -5.173E+01  +6.775E+01  -5.191E+02  +5.609E+00  -7.137E+01  -5.885E+00  +5.514E+02
  +5.13E+04  +9.39E+05  +1.85E+05  -5.173E+01  +6.775E+01  -5.191E+02  +5.609E+00  -7.137E+01  -5.885E+00  +5.514E+02
  +6.10E+04  +9.25E+05  +1.69E+05  -5.173E+01  +6.775E+01  -5.191E+02  +5.609E+00  -7.137E+01  -5.885E+00  +5.514E+02
  +4.20E+04  +9.27E+05  +1.68E+05  -5.173E+01  +6.775E+01  -5.191E+02  +5.609E+00  -7.137E+01  -5.885E+00  +5.514E+02

element # = 708     type =4-n tetrahedron
 XX         YY         ZZ         SIGXX       SIGYY       SIGZZ       TAUXY       TAUYZ       TAUZX       SIGV
  +6.86E+04  +5.47E+05  +1.35E+05  -6.853E+02  +6.962E+02  -6.699E+02  -3.983E+02  -7.027E+02  +5.057E+02  +2.148E+03
  +5.29E+04  +5.32E+05  +1.22E+05  -6.853E+02  +6.962E+02  -6.699E+02  -3.983E+02  -7.027E+02  +5.057E+02  +2.148E+03
  +5.00E+04  +5.59E+05  +1.08E+05  -6.853E+02  +6.962E+02  -6.699E+02  -3.983E+02  -7.027E+02  +5.057E+02  +2.148E+03
  +4.98E+04  +5.58E+05  +1.34E+05  -6.853E+02  +6.962E+02  -6.699E+02  -3.983E+02  -7.027E+02  +5.057E+02  +2.148E+03

element # = 709     type =4-n tetrahedron
 XX         YY         ZZ         SIGXX       SIGYY       SIGZZ       TAUXY       TAUYZ       TAUZX       SIGV
  +9.53E+03  +6.30E+05  +8.88E+04  +5.026E+02  +3.016E+02  +3.442E+02  +1.286E+02  -1.232E+03  +1.472E+02  +2.168E+03
  +4.04E+04  +6.35E+05  +7.50E+04  +5.026E+02  +3.016E+02  +3.442E+02  +1.286E+02  -1.232E+03  +1.472E+02  +2.168E+03
  +9.53E+03  +6.52E+05  +8.88E+04  +5.026E+02  +3.016E+02  +3.442E+02  +1.286E+02  -1.232E+03  +1.472E+02  +2.168E+03
  +9.53E+03  +6.41E+05  +6.65E+04  +5.026E+02  +3.016E+02  +3.442E+02  +1.286E+02  -1.232E+03  +1.472E+02  +2.168E+03

element # = 710     type =4-n tetrahedron
 XX         YY         ZZ         SIGXX       SIGYY       SIGZZ       TAUXY       TAUYZ       TAUZX       SIGV
  +1.19E+05  +3.83E+05  +1.93E+05  +9.875E+02  +1.257E+04  +8.588E+02  -4.245E+02  -5.396E+02  -3.933E+02  +1.173E+04
  +1.42E+05  +3.72E+05  +1.93E+05  +9.875E+02  +1.257E+04  +8.588E+02  -4.245E+02  -5.396E+02  -3.933E+02  +1.173E+04
  +1.42E+05  +3.93E+05  +1.93E+05  +9.875E+02  +1.257E+04  +8.588E+02  -4.245E+02  -5.396E+02  -3.933E+02  +1.173E+04
  +1.37E+05  +3.89E+05  +1.69E+05  +9.875E+02  +1.257E+04  +8.588E+02  -4.245E+02  -5.396E+02  -3.933E+02  +1.173E+04

element # = 711     type =4-n tetrahedron
 XX         YY         ZZ         SIGXX       SIGYY       SIGZZ       TAUXY       TAUYZ       TAUZX       SIGV
  +3.91E+04  +6.35E+05  +1.11E+05  +2.641E+02  +6.237E+02  -2.000E+02  +9.299E+01  -1.487E+03  -5.320E+01  +2.679E+03
  +2.18E+04  +6.57E+05  +1.00E+05  +2.641E+02  +6.237E+02  -2.000E+02  +9.299E+01  -1.487E+03  -5.320E+01  +2.679E+03
  +5.26E+04  +6.40E+05  +8.67E+04  +2.641E+02  +6.237E+02  -2.000E+02  +9.299E+01  -1.487E+03  -5.320E+01  +2.679E+03
  +4.43E+04  +6.63E+05  +1.06E+05  +2.641E+02  +6.237E+02  -2.000E+02  +9.299E+01  -1.487E+03  -5.320E+01  +2.679E+03

element # = 712     type =4-n tetrahedron
 XX         YY         ZZ         SIGXX       SIGYY       SIGZZ       TAUXY       TAUYZ       TAUZX       SIGV
  +1.37E+04  +3.46E+05  +3.10E+04  +3.608E+01  -1.013E+04  +2.164E+02  +1.028E+02  -1.201E+03  -3.547E+01  +1.046E+04
  +3.61E+04  +3.48E+05  +1.23E+04  +3.608E+01  -1.013E+04  +2.164E+02  +1.028E+02  -1.201E+03  -3.547E+01  +1.046E+04
  +1.37E+04  +3.38E+05  +1.23E+04  +3.608E+01  -1.013E+04  +2.164E+02  +1.028E+02  -1.201E+03  -3.547E+01  +1.046E+04
  +3.58E+04  +3.32E+05  +3.35E+04  +3.608E+01  -1.013E+04  +2.164E+02  +1.028E+02  -1.201E+03  -3.547E+01  +1.046E+04

element # = 713     type =4-n tetrahedron
 XX         YY         ZZ         SIGXX       SIGYY       SIGZZ       TAUXY       TAUYZ       TAUZX       SIGV
  +7.98E+04  +3.82E+05  +1.94E+05  +8.850E+02  +1.302E+04  +2.772E+02  -2.204E+02  -7.774E+02  +6.895E+02  +1.258E+04
  +5.74E+04  +3.92E+05  +1.94E+05  +8.850E+02  +1.302E+04  +2.772E+02  -2.204E+02  -7.774E+02  +6.895E+02  +1.258E+04
  +5.74E+04  +3.71E+05  +1.94E+05  +8.850E+02  +1.302E+04  +2.772E+02  -2.204E+02  -7.774E+02  +6.895E+02  +1.258E+04
  +5.91E+04  +3.85E+05  +1.75E+05  +8.850E+02  +1.302E+04  +2.772E+02  -2.204E+02  -7.774E+02  +6.895E+02  +1.258E+04

element # = 714     type =4-n tetrahedron
 XX         YY         ZZ         SIGXX       SIGYY       SIGZZ       TAUXY       TAUYZ       TAUZX       SIGV
  +1.78E+05  +4.09E+05  +1.57E+05  -1.725E+00  +5.375E+03  -1.022E+03  +6.544E+00  -1.985E+03  +7.324E+01  +6.875E+03
  +1.55E+05  +4.28E+05  +1.58E+05  -1.725E+00  +5.375E+03  -1.022E+03  +6.544E+00  -1.985E+03  +7.324E+01  +6.875E+03
  +1.55E+05  +4.09E+05  +1.79E+05  -1.725E+00  +5.375E+03  -1.022E+03  +6.544E+00  -1.985E+03  +7.324E+01  +6.875E+03
  +1.51E+05  +4.05E+05  +1.56E+05  -1.725E+00  +5.375E+03  -1.022E+03  +6.544E+00  -1.985E+03  +7.324E+01  +6.875E+03

element # = 715     type =4-n tetrahedron
 XX         YY         ZZ         SIGXX       SIGYY       SIGZZ       TAUXY       TAUYZ       TAUZX       SIGV
  +4.66E+04  +9.88E+05  +4.79E+03  -1.502E-01  -2.030E+01  -3.734E+01  +2.882E+00  -2.799E+01  +5.984E+00  +5.935E+01
  +6.45E+04  +9.88E+05  +4.79E+03  -1.502E-01  -2.030E+01  -3.734E+01  +2.882E+00  -2.799E+01  +5.984E+00  +5.935E+01
  +5.22E+04  +9.63E+05  +4.79E+03  -1.502E-01  -2.030E+01  -3.734E+01  +2.882E+00  -2.799E+01  +5.984E+00  +5.935E+01
  +4.46E+04  +9.72E+05  +2.03E+04  -1.502E-01  -2.030E+01  -3.734E+01  +2.882E+00  -2.799E+01  +5.984E+00  +5.935E+01

element # = 716     type =4-n tetrahedron
 XX         YY         ZZ         SIGXX       SIGYY       SIGZZ       TAUXY       TAUYZ       TAUZX       SIGV
  +1.93E+05  +3.26E+05  +3.62E+04  +1.723E+03  -5.801E+03  +1.296E+03  +6.125E+02  -1.060E+03  -2.809E+02  +7.636E+03
  +1.71E+05  +3.47E+05  +1.38E+04  +1.723E+03  -5.801E+03  +1.296E+03  +6.125E+02  -1.060E+03  -2.809E+02  +7.636E+03
  +1.93E+05  +3.37E+05  +1.38E+04  +1.723E+03  -5.801E+03  +1.296E+03  +6.125E+02  -1.060E+03  -2.809E+02  +7.636E+03
  +1.93E+05  +3.47E+05  +3.62E+04  +1.723E+03  -5.801E+03  +1.296E+03  +6.125E+02  -1.060E+03  -2.809E+02  +7.636E+03

element # = 717     type =4-n tetrahedron
 XX         YY         ZZ         SIGXX       SIGYY       SIGZZ       TAUXY       TAUYZ       TAUZX       SIGV
  +1.79E+05  +9.52E+05  +3.78E+04  +4.592E+01  -3.647E+01  -2.404E+01  -9.568E-01  -3.960E+01  +9.459E-01  +1.031E+02
  +1.61E+05  +9.77E+05  +1.43E+04  +4.592E+01  -3.647E+01  -2.404E+01  -9.568E-01  -3.960E+01  +9.459E-01  +1.031E+02
  +1.51E+05  +9.54E+05  +3.73E+04  +4.592E+01  -3.647E+01  -2.404E+01  -9.568E-01  -3.960E+01  +9.459E-01  +1.031E+02
  +1.55E+05  +9.52E+05  +1.43E+04  +4.592E+01  -3.647E+01  -2.404E+01  -9.568E-01  -3.960E+01  +9.459E-01  +1.031E+02

element # = 718     type =4-n tetrahedron
 XX         YY         ZZ         SIGXX       SIGYY       SIGZZ       TAUXY       TAUYZ       TAUZX       SIGV
  +1.94E+05  +9.93E+05  +2.34E+04  +7.671E+00  -1.999E+01  -1.754E+01  -6.614E+00  -2.340E+01  +2.116E+00  +4.991E+01
  +1.94E+05  +9.93E+05  +5.53E+03  +7.671E+00  -1.999E+01  -1.754E+01  -6.614E+00  -2.340E+01  +2.116E+00  +4.991E+01
  +1.77E+05  +9.93E+05  +5.53E+03  +7.671E+00  -1.999E+01  -1.754E+01  -6.614E+00  -2.340E+01  +2.116E+00  +4.991E+01
  +1.94E+05  +9.72E+05  +5.53E+03  +7.671E+00  -1.999E+01  -1.754E+01  -6.614E+00  -2.340E+01  +2.116E+00  +4.991E+01

element # = 719     type =4-n tetrahedron
 XX         YY         ZZ         SIGXX       SIGYY       SIGZZ       TAUXY       TAUYZ       TAUZX       SIGV
  +5.10E+04  +7.38E+05  +1.31E+05  -3.156E+02  +4.596E+02  -3.631E+02  -5.680E+01  -9.526E+02  +1.790E+02  +1.862E+03
  +5.03E+04  +7.13E+05  +1.48E+05  -3.156E+02  +4.596E+02  -3.631E+02  -5.680E+01  -9.526E+02  +1.790E+02  +1.862E+03
  +6.84E+04  +7.17E+05  +1.41E+05  -3.156E+02  +4.596E+02  -3.631E+02  -5.680E+01  -9.526E+02  +1.790E+02  +1.862E+03
  +5.32E+04  +7.01E+05  +1.25E+05  -3.156E+02  +4.596E+02  -3.631E+02  -5.680E+01  -9.526E+02  +1.790E+02  +1.862E+03

element # = 720     type =4-n tetrahedron
 XX         YY         ZZ         SIGXX       SIGYY       SIGZZ       TAUXY       TAUYZ       TAUZX       SIGV
  +1.33E+05  +7.41E+05  +1.92E+05  +1.356E+02  +2.396E+03  -1.521E+02  +2.007E+02  -2.526E+02  -3.363E+01  +2.482E+03
  +1.23E+05  +7.47E+05  +1.66E+05  +1.356E+02  +2.396E+03  -1.521E+02  +2.007E+02  -2.526E+02  -3.363E+01  +2.482E+03
  +1.11E+05  +7.52E+05  +1.92E+05  +1.356E+02  +2.396E+03  -1.521E+02  +2.007E+02  -2.526E+02  -3.363E+01  +2.482E+03
  +1.11E+05  +7.30E+05  +1.92E+05  +1.356E+02  +2.396E+03  -1.521E+02  +2.007E+02  -2.526E+02  -3.363E+01  +2.482E+03

element # = 721     type =4-n tetrahedron
 XX         YY         ZZ         SIGXX       SIGYY       SIGZZ       TAUXY       TAUYZ       TAUZX       SIGV
  +7.85E+04  +9.50E+05  +1.61E+05  +4.673E+01  +1.596E+02  -3.261E+02  -7.061E+00  -1.705E+02  -5.949E+00  +5.303E+02
  +5.51E+04  +9.49E+05  +1.43E+05  +4.673E+01  +1.596E+02  -3.261E+02  -7.061E+00  -1.705E+02  -5.949E+00  +5.303E+02
  +5.46E+04  +9.53E+05  +1.62E+05  +4.673E+01  +1.596E+02  -3.261E+02  -7.061E+00  -1.705E+02  -5.949E+00  +5.303E+02
  +6.87E+04  +9.31E+05  +1.59E+05  +4.673E+01  +1.596E+02  -3.261E+02  -7.061E+00  -1.705E+02  -5.949E+00  +5.303E+02

element # = 722     type =4-n tetrahedron
 XX         YY         ZZ         SIGXX       SIGYY       SIGZZ       TAUXY       TAUYZ       TAUZX       SIGV
  +1.33E+04  +7.73E+05  +1.48E+05  -6.688E+01  +9.027E+02  -4.622E+02  +2.564E+00  -7.599E+02  -4.135E+01  +1.794E+03
  +3.63E+04  +7.62E+05  +1.55E+05  -6.688E+01  +9.027E+02  -4.622E+02  +2.564E+00  -7.599E+02  -4.135E+01  +1.794E+03
  +3.35E+04  +7.63E+05  +1.37E+05  -6.688E+01  +9.027E+02  -4.622E+02  +2.564E+00  -7.599E+02  -4.135E+01  +1.794E+03
  +1.33E+04  +7.52E+05  +1.48E+05  -6.688E+01  +9.027E+02  -4.622E+02  +2.564E+00  -7.599E+02  -4.135E+01  +1.794E+03

element # = 723     type =4-n tetrahedron
 XX         YY         ZZ         SIGXX       SIGYY       SIGZZ       TAUXY       TAUYZ       TAUZX       SIGV
  +7.49E+04  +9.05E+05  +3.35E+04  +7.025E+00  -4.120E+02  -2.066E+01  +7.136E+01  -1.504E+02  +8.000E+00  +4.980E+02
  +8.26E+04  +8.76E+05  +1.23E+04  +7.025E+00  -4.120E+02  -2.066E+01  +7.136E+01  -1.504E+02  +8.000E+00  +4.980E+02
  +6.05E+04  +8.87E+05  +1.23E+04  +7.025E+00  -4.120E+02  -2.066E+01  +7.136E+01  -1.504E+02  +8.000E+00  +4.980E+02
  +5.61E+04  +8.81E+05  +3.11E+04  +7.025E+00  -4.120E+02  -2.066E+01  +7.136E+01  -1.504E+02  +8.000E+00  +4.980E+02

element # = 724     type =4-n tetrahedron
 XX         YY         ZZ         SIGXX       SIGYY       SIGZZ       TAUXY       TAUYZ       TAUZX       SIGV
  +3.53E+04  +7.31E+05  +1.33E+04  +1.372E+02  -1.917E+03  -6.768E+01  +1.910E+01  -4.995E+02  +9.138E+01  +2.148E+03
  +1.29E+04  +7.31E+05  +3.57E+04  +1.372E+02  -1.917E+03  -6.768E+01  +1.910E+01  -4.995E+02  +9.138E+01  +2.148E+03
  +3.22E+04  +7.15E+05  +3.39E+04  +1.372E+02  -1.917E+03  -6.768E+01  +1.910E+01  -4.995E+02  +9.138E+01  +2.148E+03
  +1.29E+04  +7.20E+05  +1.33E+04  +1.372E+02  -1.917E+03  -6.768E+01  +1.910E+01  -4.995E+02  +9.138E+01  +2.148E+03

element # = 725     type =4-n tetrahedron
 XX         YY         ZZ         SIGXX       SIGYY       SIGZZ       TAUXY       TAUYZ       TAUZX       SIGV
  +2.53E+04  +6.99E+05  +3.39E+04  -5.996E+02  -3.018E+03  -1.732E+02  +2.812E+02  -6.240E+02  +8.681E+01  +2.913E+03
  +5.97E+03  +6.93E+05  +3.57E+04  -5.996E+02  -3.018E+03  -1.732E+02  +2.812E+02  -6.240E+02  +8.681E+01  +2.913E+03
  +5.97E+03  +6.82E+05  +1.33E+04  -5.996E+02  -3.018E+03  -1.732E+02  +2.812E+02  -6.240E+02  +8.681E+01  +2.913E+03
  +5.97E+03  +7.03E+05  +1.33E+04  -5.996E+02  -3.018E+03  -1.732E+02  +2.812E+02  -6.240E+02  +8.681E+01  +2.913E+03

element # = 726     type =4-n tetrahedron
 XX         YY         ZZ         SIGXX       SIGYY       SIGZZ       TAUXY       TAUYZ       TAUZX       SIGV
  +6.57E+04  +6.06E+05  +6.93E+04  +4.261E+01  -1.234E+03  -1.361E+02  +1.606E+02  -1.357E+03  +5.704E+00  +2.653E+03
  +7.63E+04  +5.70E+05  +7.50E+04  +4.261E+01  -1.234E+03  -1.361E+02  +1.606E+02  -1.357E+03  +5.704E+00  +2.653E+03
  +5.57E+04  +5.90E+05  +5.58E+04  +4.261E+01  -1.234E+03  -1.361E+02  +1.606E+02  -1.357E+03  +5.704E+00  +2.653E+03
  +5.43E+04  +5.80E+05  +7.79E+04  +4.261E+01  -1.234E+03  -1.361E+02  +1.606E+02  -1.357E+03  +5.704E+00  +2.653E+03

element # = 727     type =4-n tetrahedron
 XX         YY         ZZ         SIGXX       SIGYY       SIGZZ       TAUXY       TAUYZ       TAUZX       SIGV
  +1.25E+05  +3.82E+05  +4.67E+04  +1.595E+03  -4.735E+03  +6.638E+02  +1.232E+03  -9.261E+02  +4.513E+01  +6.494E+03
  +1.36E+05  +3.63E+05  +1.72E+04  +1.595E+03  -4.735E+03  +6.638E+02  +1.232E+03  -9.261E+02  +4.513E+01  +6.494E+03
  +1.14E+05  +3.74E+05  +1.72E+04  +1.595E+03  -4.735E+03  +6.638E+02  +1.232E+03  -9.261E+02  +4.513E+01  +6.494E+03
  +1.24E+05  +3.55E+05  +4.32E+04  +1.595E+03  -4.735E+03  +6.638E+02  +1.232E+03  -9.261E+02  +4.513E+01  +6.494E+03

element # = 728     type =4-n tetrahedron
 XX         YY         ZZ         SIGXX       SIGYY       SIGZZ       TAUXY       TAUYZ       TAUZX       SIGV
  +1.10E+05  +5.34E+05  +2.73E+04  +1.834E+02  -2.301E+03  +1.117E+03  -1.826E+02  -1.335E+03  -2.419E+02  +3.871E+03
  +1.27E+05  +5.61E+05  +5.08E+04  +1.834E+02  -2.301E+03  +1.117E+03  -1.826E+02  -1.335E+03  -2.419E+02  +3.871E+03
  +1.27E+05  +5.29E+05  +5.57E+04  +1.834E+02  -2.301E+03  +1.117E+03  -1.826E+02  -1.335E+03  -2.419E+02  +3.871E+03
  +1.06E+05  +5.46E+05  +6.39E+04  +1.834E+02  -2.301E+03  +1.117E+03  -1.826E+02  -1.335E+03  -2.419E+02  +3.871E+03

element # = 729     type =4-n tetrahedron
 XX         YY         ZZ         SIGXX       SIGYY       SIGZZ       TAUXY       TAUYZ       TAUZX       SIGV
  +1.77E+05  +9.86E+05  +1.28E+04  +2.125E+01  -2.923E+00  -3.635E+00  -1.191E+00  -2.896E+01  -1.347E+00  +5.593E+01
  +1.94E+05  +9.61E+05  +3.62E+04  +2.125E+01  -2.923E+00  -3.635E+00  -1.191E+00  -2.896E+01  -1.347E+00  +5.593E+01
  +1.94E+05  +9.86E+05  +3.07E+04  +2.125E+01  -2.923E+00  -3.635E+00  -1.191E+00  -2.896E+01  -1.347E+00  +5.593E+01
  +1.94E+05  +9.64E+05  +1.28E+04  +2.125E+01  -2.923E+00  -3.635E+00  -1.191E+00  -2.896E+01  -1.347E+00  +5.593E+01

element # = 730     type =4-n tetrahedron
 XX         YY         ZZ         SIGXX       SIGYY       SIGZZ       TAUXY       TAUYZ       TAUZX       SIGV
  +1.11E+05  +7.94E+05  +1.92E+05  +8.212E+01  +1.386E+03  -3.153E+02  -2.368E+01  -4.987E+02  +7.294E+01  +1.772E+03
  +1.23E+05  +7.67E+05  +1.66E+05  +8.212E+01  +1.386E+03  -3.153E+02  -2.368E+01  -4.987E+02  +7.294E+01  +1.772E+03
  +1.11E+05  +7.72E+05  +1.92E+05  +8.212E+01  +1.386E+03  -3.153E+02  -2.368E+01  -4.987E+02  +7.294E+01  +1.772E+03
  +1.33E+05  +7.83E+05  +1.92E+05  +8.212E+01  +1.386E+03  -3.153E+02  -2.368E+01  -4.987E+02  +7.294E+01  +1.772E+03

element # = 731     type =4-n tetrahedron
 XX         YY         ZZ         SIGXX       SIGYY       SIGZZ       TAUXY       TAUYZ       TAUZX       SIGV
  +1.80E+05  +9.64E+05  +1.93E+05  -2.504E+01  +6.715E+01  -4.544E+02  +1.022E+01  -5.122E+01  -4.240E+00  +4.906E+02
  +1.57E+05  +9.86E+05  +1.70E+05  -2.504E+01  +6.715E+01  -4.544E+02  +1.022E+01  -5.122E+01  -4.240E+00  +4.906E+02
  +1.62E+05  +9.86E+05  +1.93E+05  -2.504E+01  +6.715E+01  -4.544E+02  +1.022E+01  -5.122E+01  -4.240E+00  +4.906E+02
  +1.57E+05  +9.61E+05  +1.93E+05  -2.504E+01  +6.715E+01  -4.544E+02  +1.022E+01  -5.122E+01  -4.240E+00  +4.906E+02

element # = 732     type =4-n tetrahedron
 XX         YY         ZZ         SIGXX       SIGYY       SIGZZ       TAUXY       TAUYZ       TAUZX       SIGV
  +1.16E+05  +2.92E+05  +1.60E+04  +7.056E+02  -6.915E+03  -1.478E+02  -1.299E+03  -1.291E+03  +1.232E+02  +7.900E+03
  +1.33E+05  +2.81E+05  +4.16E+04  +7.056E+02  -6.915E+03  -1.478E+02  -1.299E+03  -1.291E+03  +1.232E+02  +7.900E+03
  +1.26E+05  +3.15E+05  +4.20E+04  +7.056E+02  -6.915E+03  -1.478E+02  -1.299E+03  -1.291E+03  +1.232E+02  +7.900E+03
  +1.38E+05  +3.03E+05  +1.60E+04  +7.056E+02  -6.915E+03  -1.478E+02  -1.299E+03  -1.291E+03  +1.232E+02  +7.900E+03

element # = 733     type =4-n tetrahedron
 XX         YY         ZZ         SIGXX       SIGYY       SIGZZ       TAUXY       TAUYZ       TAUZX       SIGV
  +1.08E+04  +6.33E+04  +6.50E+04  -7.249E+02  -6.643E+03  -1.755E+03  -1.549E+03  -2.208E+03  +9.360E+02  +7.378E+03
  +2.73E+04  +5.62E+04  +7.64E+04  -7.249E+02  -6.643E+03  -1.755E+03  -1.549E+03  -2.208E+03  +9.360E+02  +7.378E+03
  +1.08E+04  +7.85E+04  +8.64E+04  -7.249E+02  -6.643E+03  -1.755E+03  -1.549E+03  -2.208E+03  +9.360E+02  +7.378E+03
  +2.94E+04  +7.56E+04  +7.30E+04  -7.249E+02  -6.643E+03  -1.755E+03  -1.549E+03  -2.208E+03  +9.360E+02  +7.378E+03

element # = 734     type =4-n tetrahedron
 XX         YY         ZZ         SIGXX       SIGYY       SIGZZ       TAUXY       TAUYZ       TAUZX       SIGV
  +1.88E+04  +5.34E+05  +1.07E+05  +7.168E+02  +1.276E+03  -1.069E+02  -3.842E+02  -7.993E+02  -3.424E+02  +2.041E+03
  +3.80E+04  +5.55E+05  +1.28E+05  +7.168E+02  +1.276E+03  -1.069E+02  -3.842E+02  -7.993E+02  -3.424E+02  +2.041E+03
  +3.83E+04  +5.56E+05  +1.02E+05  +7.168E+02  +1.276E+03  -1.069E+02  -3.842E+02  -7.993E+02  -3.424E+02  +2.041E+03
  +4.12E+04  +5.29E+05  +1.16E+05  +7.168E+02  +1.276E+03  -1.069E+02  -3.842E+02  -7.993E+02  -3.424E+02  +2.041E+03

element # = 735     type =4-n tetrahedron
 XX         YY         ZZ         SIGXX       SIGYY       SIGZZ       TAUXY       TAUYZ       TAUZX       SIGV
  +6.91E+03  +3.07E+05  +2.30E+04  -4.450E+02  -1.551E+04  +3.364E+02  +2.724E+02  -1.515E+03  +7.619E+02  +1.575E+04
  +2.93E+04  +3.09E+05  +5.44E+03  -4.450E+02  -1.551E+04  +3.364E+02  +2.724E+02  -1.515E+03  +7.619E+02  +1.575E+04
  +6.91E+03  +3.20E+05  +5.44E+03  -4.450E+02  -1.551E+04  +3.364E+02  +2.724E+02  -1.515E+03  +7.619E+02  +1.575E+04
  +6.91E+03  +2.98E+05  +5.44E+03  -4.450E+02  -1.551E+04  +3.364E+02  +2.724E+02  -1.515E+03  +7.619E+02  +1.575E+04

element # = 736     type =4-n tetrahedron
 XX         YY         ZZ         SIGXX       SIGYY       SIGZZ       TAUXY       TAUYZ       TAUZX       SIGV
  +1.92E+05  +3.20E+05  +1.42E+05  +7.540E+02  +7.833E+03  +1.344E+03  +4.096E+02  -3.090E+03  -1.153E+03  +8.912E+03
  +1.92E+05  +3.30E+05  +1.19E+05  +7.540E+02  +7.833E+03  +1.344E+03  +4.096E+02  -3.090E+03  -1.153E+03  +8.912E+03
  +1.92E+05  +3.41E+05  +1.42E+05  +7.540E+02  +7.833E+03  +1.344E+03  +4.096E+02  -3.090E+03  -1.153E+03  +8.912E+03
  +1.68E+05  +3.22E+05  +1.37E+05  +7.540E+02  +7.833E+03  +1.344E+03  +4.096E+02  -3.090E+03  -1.153E+03  +8.912E+03

element # = 737     type =4-n tetrahedron
 XX         YY         ZZ         SIGXX       SIGYY       SIGZZ       TAUXY       TAUYZ       TAUZX       SIGV
  +1.07E+05  +3.27E+05  +4.06E+04  -2.027E+03  -1.512E+04  -8.593E+01  +3.263E+02  -6.861E+02  -1.639E+02  +1.423E+04
  +9.63E+04  +3.04E+05  +1.46E+04  -2.027E+03  -1.512E+04  -8.593E+01  +3.263E+02  -6.861E+02  -1.639E+02  +1.423E+04
  +9.63E+04  +3.25E+05  +1.46E+04  -2.027E+03  -1.512E+04  -8.593E+01  +3.263E+02  -6.861E+02  -1.639E+02  +1.423E+04
  +7.37E+04  +3.20E+05  +3.58E+04  -2.027E+03  -1.512E+04  -8.593E+01  +3.263E+02  -6.861E+02  -1.639E+02  +1.423E+04

element # = 738     type =4-n tetrahedron
 XX         YY         ZZ         SIGXX       SIGYY       SIGZZ       TAUXY       TAUYZ       TAUZX       SIGV
  +7.08E+04  +2.92E+05  +1.58E+05  -3.121E+02  +9.829E+03  -4.489E+02  +3.521E+02  -8.853E+02  +5.193E+02  +1.038E+04
  +5.35E+04  +3.04E+05  +1.82E+05  -3.121E+02  +9.829E+03  -4.489E+02  +3.521E+02  -8.853E+02  +5.193E+02  +1.038E+04
  +5.02E+04  +2.89E+05  +1.65E+05  -3.121E+02  +9.829E+03  -4.489E+02  +3.521E+02  -8.853E+02  +5.193E+02  +1.038E+04
  +5.06E+04  +3.13E+05  +1.63E+05  -3.121E+02  +9.829E+03  -4.489E+02  +3.521E+02  -8.853E+02  +5.193E+02  +1.038E+04

element # = 739     type =4-n tetrahedron
 XX         YY         ZZ         SIGXX       SIGYY       SIGZZ       TAUXY       TAUYZ       TAUZX       SIGV
  +1.87E+05  +9.72E+05  +1.87E+05  -1.226E+01  +3.059E+01  -4.677E+02  +2.515E+00  -3.861E+01  +3.894E+00  +4.831E+02
  +1.64E+05  +9.93E+05  +1.64E+05  -1.226E+01  +3.059E+01  -4.677E+02  +2.515E+00  -3.861E+01  +3.894E+00  +4.831E+02
  +1.87E+05  +9.93E+05  +1.69E+05  -1.226E+01  +3.059E+01  -4.677E+02  +2.515E+00  -3.861E+01  +3.894E+00  +4.831E+02
  +1.69E+05  +9.93E+05  +1.87E+05  -1.226E+01  +3.059E+01  -4.677E+02  +2.515E+00  -3.861E+01  +3.894E+00  +4.831E+02

element # = 740     type =4-n tetrahedron
 XX         YY         ZZ         SIGXX       SIGYY       SIGZZ       TAUXY       TAUYZ       TAUZX       SIGV
  +1.81E+04  +2.85E+05  +1.22E+05  -3.654E+02  +1.140E+03  -1.965E+02  -3.027E+02  -2.090E+03  -5.850E+02  +4.056E+03
  +3.72E+04  +2.78E+05  +1.42E+05  -3.654E+02  +1.140E+03  -1.965E+02  -3.027E+02  -2.090E+03  -5.850E+02  +4.056E+03
  +3.69E+04  +2.91E+05  +1.18E+05  -3.654E+02  +1.140E+03  -1.965E+02  -3.027E+02  -2.090E+03  -5.850E+02  +4.056E+03
  +3.87E+04  +2.64E+05  +1.15E+05  -3.654E+02  +1.140E+03  -1.965E+02  -3.027E+02  -2.090E+03  -5.850E+02  +4.056E+03

element # = 741     type =4-n tetrahedron
 XX         YY         ZZ         SIGXX       SIGYY       SIGZZ       TAUXY       TAUYZ       TAUZX       SIGV
  +1.35E+05  +8.51E+04  +9.10E+04  +2.692E+03  +9.734E+03  +7.203E+02  -3.203E+03  -4.473E+03  -8.993E+00  +1.258E+04
  +1.33E+05  +7.11E+04  +1.35E+05  +2.692E+03  +9.734E+03  +7.203E+02  -3.203E+03  -4.473E+03  -8.993E+00  +1.258E+04
  +1.14E+05  +6.63E+04  +1.08E+05  +2.692E+03  +9.734E+03  +7.203E+02  -3.203E+03  -4.473E+03  -8.993E+00  +1.258E+04
  +1.27E+05  +1.06E+05  +1.25E+05  +2.692E+03  +9.734E+03  +7.203E+02  -3.203E+03  -4.473E+03  -8.993E+00  +1.258E+04

element # = 742     type =4-n tetrahedron
 XX         YY         ZZ         SIGXX       SIGYY       SIGZZ       TAUXY       TAUYZ       TAUZX       SIGV
  +1.93E+05  +9.64E+05  +1.80E+05  -3.253E+01  -9.382E+00  -4.884E+02  +8.332E+00  -5.214E+01  +7.648E+00  +4.770E+02
  +1.70E+05  +9.86E+05  +1.57E+05  -3.253E+01  -9.382E+00  -4.884E+02  +8.332E+00  -5.214E+01  +7.648E+00  +4.770E+02
  +1.93E+05  +9.61E+05  +1.57E+05  -3.253E+01  -9.382E+00  -4.884E+02  +8.332E+00  -5.214E+01  +7.648E+00  +4.770E+02
  +1.93E+05  +9.86E+05  +1.62E+05  -3.253E+01  -9.382E+00  -4.884E+02  +8.332E+00  -5.214E+01  +7.648E+00  +4.770E+02

element # = 743     type =4-n tetrahedron
 XX         YY         ZZ         SIGXX       SIGYY       SIGZZ       TAUXY       TAUYZ       TAUZX       SIGV
  +1.30E+05  +9.86E+05  +1.48E+05  -2.798E+01  +6.169E+00  -4.413E+02  -8.791E+00  -7.229E+01  +1.611E+01  +4.503E+02
  +1.07E+05  +9.66E+05  +1.56E+05  -2.798E+01  +6.169E+00  -4.413E+02  -8.791E+00  -7.229E+01  +1.611E+01  +4.503E+02
  +1.15E+05  +9.60E+05  +1.33E+05  -2.798E+01  +6.169E+00  -4.413E+02  -8.791E+00  -7.229E+01  +1.611E+01  +4.503E+02
  +1.08E+05  +9.86E+05  +1.52E+05  -2.798E+01  +6.169E+00  -4.413E+02  -8.791E+00  -7.229E+01  +1.611E+01  +4.503E+02

element # = 744     type =4-n tetrahedron
 XX         YY         ZZ         SIGXX       SIGYY       SIGZZ       TAUXY       TAUYZ       TAUZX       SIGV
  +1.47E+05  +9.11E+05  +1.52E+05  +5.599E+01  +2.500E+02  -3.358E+02  -1.767E+01  -1.853E+02  +1.246E+01  +6.095E+02
  +1.50E+05  +9.36E+05  +1.74E+05  +5.599E+01  +2.500E+02  -3.358E+02  -1.767E+01  -1.853E+02  +1.246E+01  +6.095E+02
  +1.35E+05  +9.35E+05  +1.36E+05  +5.599E+01  +2.500E+02  -3.358E+02  -1.767E+01  -1.853E+02  +1.246E+01  +6.095E+02
  +1.73E+05  +9.36E+05  +1.51E+05  +5.599E+01  +2.500E+02  -3.358E+02  -1.767E+01  -1.853E+02  +1.246E+01  +6.095E+02

element # = 745     type =4-n tetrahedron
 XX         YY         ZZ         SIGXX       SIGYY       SIGZZ       TAUXY       TAUYZ       TAUZX       SIGV
  +1.90E+05  +8.14E+05  +1.18E+05  +1.357E+02  +6.702E+02  -3.268E+02  +9.017E+01  -6.450E+02  -6.528E+01  +1.426E+03
  +1.90E+05  +8.25E+05  +1.40E+05  +1.357E+02  +6.702E+02  -3.268E+02  +9.017E+01  -6.450E+02  -6.528E+01  +1.426E+03
  +1.90E+05  +8.03E+05  +1.40E+05  +1.357E+02  +6.702E+02  -3.268E+02  +9.017E+01  -6.450E+02  -6.528E+01  +1.426E+03
  +1.58E+05  +8.21E+05  +1.32E+05  +1.357E+02  +6.702E+02  -3.268E+02  +9.017E+01  -6.450E+02  -6.528E+01  +1.426E+03

element # = 746     type =4-n tetrahedron
 XX         YY         ZZ         SIGXX       SIGYY       SIGZZ       TAUXY       TAUYZ       TAUZX       SIGV
  +1.23E+05  +9.79E+05  +7.09E+03  +7.984E+01  -2.895E+01  -1.912E+01  +7.197E+00  -4.714E+01  -1.430E+01  +1.353E+02
  +1.36E+05  +9.54E+05  +7.09E+03  +7.984E+01  -2.895E+01  -1.912E+01  +7.197E+00  -4.714E+01  -1.430E+01  +1.353E+02
  +1.15E+05  +9.61E+05  +7.09E+03  +7.984E+01  -2.895E+01  -1.912E+01  +7.197E+00  -4.714E+01  -1.430E+01  +1.353E+02
  +1.31E+05  +9.56E+05  +3.00E+04  +7.984E+01  -2.895E+01  -1.912E+01  +7.197E+00  -4.714E+01  -1.430E+01  +1.353E+02

element # = 747     type =4-n tetrahedron
 XX         YY         ZZ         SIGXX       SIGYY       SIGZZ       TAUXY       TAUYZ       TAUZX       SIGV
  +1.61E+05  +9.37E+05  +2.13E+04  +7.797E+00  -1.353E+02  -4.931E+01  -9.625E+00  -1.642E+02  -4.788E+00  +3.112E+02
  +1.84E+05  +9.11E+05  +4.39E+04  +7.797E+00  -1.353E+02  -4.931E+01  -9.625E+00  -1.642E+02  -4.788E+00  +3.112E+02
  +1.56E+05  +9.38E+05  +4.43E+04  +7.797E+00  -1.353E+02  -4.931E+01  -9.625E+00  -1.642E+02  -4.788E+00  +3.112E+02
  +1.84E+05  +9.37E+05  +4.48E+04  +7.797E+00  -1.353E+02  -4.931E+01  -9.625E+00  -1.642E+02  -4.788E+00  +3.112E+02

element # = 748     type =4-n tetrahedron
 XX         YY         ZZ         SIGXX       SIGYY       SIGZZ       TAUXY       TAUYZ       TAUZX       SIGV
  +1.93E+05  +7.78E+04  +7.25E+03  -5.437E+03  -3.313E+04  -4.946E+03  +1.995E+03  -4.322E+03  -1.199E+03  +2.921E+04
  +1.93E+05  +5.65E+04  +7.25E+03  -5.437E+03  -3.313E+04  -4.946E+03  +1.995E+03  -4.322E+03  -1.199E+03  +2.921E+04
  +1.69E+05  +6.02E+04  +7.25E+03  -5.437E+03  -3.313E+04  -4.946E+03  +1.995E+03  -4.322E+03  -1.199E+03  +2.921E+04
  +1.93E+05  +6.02E+04  +3.07E+04  -5.437E+03  -3.313E+04  -4.946E+03  +1.995E+03  -4.322E+03  -1.199E+03  +2.921E+04

element # = 749     type =4-n tetrahedron
 XX         YY         ZZ         SIGXX       SIGYY       SIGZZ       TAUXY       TAUYZ       TAUZX       SIGV
  +5.89E+04  +6.21E+05  +1.51E+05  +1.946E+02  +2.256E+03  -7.006E+02  -5.545E+01  -1.278E+03  +1.467E+02  +3.445E+03
  +8.15E+04  +6.21E+05  +1.32E+05  +1.946E+02  +2.256E+03  -7.006E+02  -5.545E+01  -1.278E+03  +1.467E+02  +3.445E+03
  +6.15E+04  +6.41E+05  +1.49E+05  +1.946E+02  +2.256E+03  -7.006E+02  -5.545E+01  -1.278E+03  +1.467E+02  +3.445E+03
  +5.24E+04  +6.22E+05  +1.33E+05  +1.946E+02  +2.256E+03  -7.006E+02  -5.545E+01  -1.278E+03  +1.467E+02  +3.445E+03

element # = 750     type =4-n tetrahedron
 XX         YY         ZZ         SIGXX       SIGYY       SIGZZ       TAUXY       TAUYZ       TAUZX       SIGV
  +1.64E+05  +2.45E+05  +6.92E+03  -2.373E+03  -2.009E+04  -3.204E+03  +4.105E+01  -2.395E+03  -2.662E+02  +1.781E+04
  +1.86E+05  +2.23E+05  +2.93E+04  -2.373E+03  -2.009E+04  -3.204E+03  +4.105E+01  -2.395E+03  -2.662E+02  +1.781E+04
  +1.86E+05  +2.34E+05  +6.92E+03  -2.373E+03  -2.009E+04  -3.204E+03  +4.105E+01  -2.395E+03  -2.662E+02  +1.781E+04
  +1.64E+05  +2.23E+05  +6.92E+03  -2.373E+03  -2.009E+04  -3.204E+03  +4.105E+01  -2.395E+03  -2.662E+02  +1.781E+04

element # = 751     type =4-n tetrahedron
 XX         YY         ZZ         SIGXX       SIGYY       SIGZZ       TAUXY       TAUYZ       TAUZX       SIGV
  +3.85E+04  +2.32E+05  +1.73E+05  +1.302E+03  +1.897E+04  +4.940E+02  -5.727E+02  -1.335E+03  -7.656E+02  +1.831E+04
  +1.97E+04  +2.37E+05  +1.94E+05  +1.302E+03  +1.897E+04  +4.940E+02  -5.727E+02  -1.335E+03  -7.656E+02  +1.831E+04
  +4.20E+04  +2.47E+05  +1.94E+05  +1.302E+03  +1.897E+04  +4.940E+02  -5.727E+02  -1.335E+03  -7.656E+02  +1.831E+04
  +4.21E+04  +2.25E+05  +1.94E+05  +1.302E+03  +1.897E+04  +4.940E+02  -5.727E+02  -1.335E+03  -7.656E+02  +1.831E+04

element # = 752     type =4-n tetrahedron
 XX         YY         ZZ         SIGXX       SIGYY       SIGZZ       TAUXY       TAUYZ       TAUZX       SIGV
  +1.90E+05  +7.51E+05  +1.42E+05  +2.155E+02  +1.206E+03  -1.484E+02  +4.292E+01  -7.780E+02  -8.069E+01  +1.821E+03
  +1.57E+05  +7.57E+05  +1.38E+05  +2.155E+02  +1.206E+03  -1.484E+02  +4.292E+01  -7.780E+02  -8.069E+01  +1.821E+03
  +1.90E+05  +7.62E+05  +1.19E+05  +2.155E+02  +1.206E+03  -1.484E+02  +4.292E+01  -7.780E+02  -8.069E+01  +1.821E+03
  +1.90E+05  +7.72E+05  +1.42E+05  +2.155E+02  +1.206E+03  -1.484E+02  +4.292E+01  -7.780E+02  -8.069E+01  +1.821E+03

element # = 753     type =4-n tetrahedron
 XX         YY         ZZ         SIGXX       SIGYY       SIGZZ       TAUXY       TAUYZ       TAUZX       SIGV
  +1.06E+05  +2.13E+05  +1.59E+05  +1.377E+03  +1.550E+04  +6.269E+02  +9.306E+01  -1.786E+03  -2.542E+02  +1.484E+04
  +1.34E+05  +2.17E+05  +1.83E+05  +1.377E+03  +1.550E+04  +6.269E+02  +9.306E+01  -1.786E+03  -2.542E+02  +1.484E+04
  +1.11E+05  +2.28E+05  +1.83E+05  +1.377E+03  +1.550E+04  +6.269E+02  +9.306E+01  -1.786E+03  -2.542E+02  +1.484E+04
  +1.30E+05  +2.26E+05  +1.51E+05  +1.377E+03  +1.550E+04  +6.269E+02  +9.306E+01  -1.786E+03  -2.542E+02  +1.484E+04

element # = 754     type =4-n tetrahedron
 XX         YY         ZZ         SIGXX       SIGYY       SIGZZ       TAUXY       TAUYZ       TAUZX       SIGV
  +1.86E+05  +7.97E+05  +1.71E+05  +4.531E-01  +1.026E+03  -5.046E+02  +6.915E+01  -2.962E+02  +5.132E+01  +1.453E+03
  +1.64E+05  +8.19E+05  +1.93E+05  +4.531E-01  +1.026E+03  -5.046E+02  +6.915E+01  -2.962E+02  +5.132E+01  +1.453E+03
  +1.86E+05  +8.07E+05  +1.93E+05  +4.531E-01  +1.026E+03  -5.046E+02  +6.915E+01  -2.962E+02  +5.132E+01  +1.453E+03
  +1.64E+05  +7.97E+05  +1.93E+05  +4.531E-01  +1.026E+03  -5.046E+02  +6.915E+01  -2.962E+02  +5.132E+01  +1.453E+03

element # = 755     type =4-n tetrahedron
 XX         YY         ZZ         SIGXX       SIGYY       SIGZZ       TAUXY       TAUYZ       TAUZX       SIGV
  +5.50E+03  +5.34E+05  +1.59E+05  -3.408E+02  +3.467E+03  -8.968E+02  -2.119E+02  -8.075E+02  +3.311E+02  +4.399E+03
  +5.50E+03  +5.24E+05  +1.82E+05  -3.408E+02  +3.467E+03  -8.968E+02  -2.119E+02  -8.075E+02  +3.311E+02  +4.399E+03
  +2.33E+04  +5.25E+05  +1.66E+05  -3.408E+02  +3.467E+03  -8.968E+02  -2.119E+02  -8.075E+02  +3.311E+02  +4.399E+03
  +5.50E+03  +5.13E+05  +1.59E+05  -3.408E+02  +3.467E+03  -8.968E+02  -2.119E+02  -8.075E+02  +3.311E+02  +4.399E+03

element # = 756     type =4-n tetrahedron
 XX         YY         ZZ         SIGXX       SIGYY       SIGZZ       TAUXY       TAUYZ       TAUZX       SIGV
  +3.53E+04  +6.93E+05  +1.95E+05  +1.319E+02  +2.844E+03  -3.125E+02  -3.467E+01  -4.219E+02  -4.423E+01  +3.050E+03
  +3.24E+04  +7.00E+05  +1.78E+05  +1.319E+02  +2.844E+03  -3.125E+02  -3.467E+01  -4.219E+02  -4.423E+01  +3.050E+03
  +1.29E+04  +7.04E+05  +1.95E+05  +1.319E+02  +2.844E+03  -3.125E+02  -3.467E+01  -4.219E+02  -4.423E+01  +3.050E+03
  +1.29E+04  +6.82E+05  +1.95E+05  +1.319E+02  +2.844E+03  -3.125E+02  -3.467E+01  -4.219E+02  -4.423E+01  +3.050E+03

element # = 757     type =4-n tetrahedron
 XX         YY         ZZ         SIGXX       SIGYY       SIGZZ       TAUXY       TAUYZ       TAUZX       SIGV
  +1.06E+05  +5.24E+05  +9.25E+04  +4.793E+02  +9.510E+02  -2.023E+02  +4.840E+02  -1.128E+03  +9.848E+01  +2.357E+03
  +1.11E+05  +4.79E+05  +1.09E+05  +4.793E+02  +9.510E+02  -2.023E+02  +4.840E+02  -1.128E+03  +9.848E+01  +2.357E+03
  +1.24E+05  +5.05E+05  +1.19E+05  +4.793E+02  +9.510E+02  -2.023E+02  +4.840E+02  -1.128E+03  +9.848E+01  +2.357E+03
  +1.26E+05  +5.08E+05  +8.43E+04  +4.793E+02  +9.510E+02  -2.023E+02  +4.840E+02  -1.128E+03  +9.848E+01  +2.357E+03

element # = 758     type =4-n tetrahedron
 XX         YY         ZZ         SIGXX       SIGYY       SIGZZ       TAUXY       TAUYZ       TAUZX       SIGV
  +8.28E+03  +4.65E+05  +1.59E+05  -4.447E+02  +4.295E+03  -7.027E+02  -1.677E+02  -6.207E+02  +3.210E+02  +5.030E+03
  +3.51E+04  +4.78E+05  +1.63E+05  -4.447E+02  +4.295E+03  -7.027E+02  -1.677E+02  -6.207E+02  +3.210E+02  +5.030E+03
  +8.28E+03  +4.76E+05  +1.81E+05  -4.447E+02  +4.295E+03  -7.027E+02  -1.677E+02  -6.207E+02  +3.210E+02  +5.030E+03
  +8.28E+03  +4.86E+05  +1.59E+05  -4.447E+02  +4.295E+03  -7.027E+02  -1.677E+02  -6.207E+02  +3.210E+02  +5.030E+03

element # = 759     type =4-n tetrahedron
 XX         YY         ZZ         SIGXX       SIGYY       SIGZZ       TAUXY       TAUYZ       TAUZX       SIGV
  +3.76E+04  +4.94E+05  +1.88E+05  +4.054E+02  +7.130E+03  -3.639E+02  -1.034E+02  -8.360E+02  +9.093E+01  +7.290E+03
  +1.52E+04  +4.93E+05  +1.65E+05  +4.054E+02  +7.130E+03  -3.639E+02  -1.034E+02  -8.360E+02  +9.093E+01  +7.290E+03
  +1.52E+04  +4.83E+05  +1.88E+05  +4.054E+02  +7.130E+03  -3.639E+02  -1.034E+02  -8.360E+02  +9.093E+01  +7.290E+03
  +4.20E+04  +4.85E+05  +1.70E+05  +4.054E+02  +7.130E+03  -3.639E+02  -1.034E+02  -8.360E+02  +9.093E+01  +7.290E+03

element # = 760     type =4-n tetrahedron
 XX         YY         ZZ         SIGXX       SIGYY       SIGZZ       TAUXY       TAUYZ       TAUZX       SIGV
  +6.06E+04  +5.19E+05  +6.29E+04  -8.598E+02  -3.145E+03  -7.891E+02  +8.113E+02  -1.114E+03  +1.699E+02  +3.343E+03
  +5.83E+04  +5.12E+05  +9.58E+04  -8.598E+02  -3.145E+03  -7.891E+02  +8.113E+02  -1.114E+03  +1.699E+02  +3.343E+03
  +7.74E+04  +5.29E+05  +7.93E+04  -8.598E+02  -3.145E+03  -7.891E+02  +8.113E+02  -1.114E+03  +1.699E+02  +3.343E+03
  +6.37E+04  +4.94E+05  +7.11E+04  -8.598E+02  -3.145E+03  -7.891E+02  +8.113E+02  -1.114E+03  +1.699E+02  +3.343E+03

element # = 761     type =4-n tetrahedron
 XX         YY         ZZ         SIGXX       SIGYY       SIGZZ       TAUXY       TAUYZ       TAUZX       SIGV
  +6.92E+03  +2.15E+05  +1.76E+05  +9.314E+02  +2.061E+04  -4.201E+02  -6.318E+02  -1.184E+03  +8.353E+02  +2.057E+04
  +2.93E+04  +2.14E+05  +1.94E+05  +9.314E+02  +2.061E+04  -4.201E+02  -6.318E+02  -1.184E+03  +8.353E+02  +2.057E+04
  +6.92E+03  +2.04E+05  +1.94E+05  +9.314E+02  +2.061E+04  -4.201E+02  -6.318E+02  -1.184E+03  +8.353E+02  +2.057E+04
  +6.92E+03  +2.25E+05  +1.94E+05  +9.314E+02  +2.061E+04  -4.201E+02  -6.318E+02  -1.184E+03  +8.353E+02  +2.057E+04

element # = 762     type =4-n tetrahedron
 XX         YY         ZZ         SIGXX       SIGYY       SIGZZ       TAUXY       TAUYZ       TAUZX       SIGV
  +3.75E+04  +6.74E+05  +1.29E+05  -2.773E+01  +1.748E+03  -3.141E+02  +3.655E+01  -9.538E+02  -4.762E+01  +2.547E+03
  +1.51E+04  +6.78E+05  +1.46E+05  -2.773E+01  +1.748E+03  -3.141E+02  +3.655E+01  -9.538E+02  -4.762E+01  +2.547E+03
  +4.14E+04  +6.65E+05  +1.49E+05  -2.773E+01  +1.748E+03  -3.141E+02  +3.655E+01  -9.538E+02  -4.762E+01  +2.547E+03
  +1.51E+04  +6.57E+05  +1.46E+05  -2.773E+01  +1.748E+03  -3.141E+02  +3.655E+01  -9.538E+02  -4.762E+01  +2.547E+03

element # = 763     type =4-n tetrahedron
 XX         YY         ZZ         SIGXX       SIGYY       SIGZZ       TAUXY       TAUYZ       TAUZX       SIGV
  +2.94E+04  +1.65E+05  +1.94E+05  +8.461E+02  +2.277E+04  -1.079E+02  -5.690E+01  -1.644E+03  +9.150E+02  +2.265E+04
  +6.94E+03  +1.77E+05  +1.94E+05  +8.461E+02  +2.277E+04  -1.079E+02  -5.690E+01  -1.644E+03  +9.150E+02  +2.265E+04
  +6.94E+03  +1.56E+05  +1.94E+05  +8.461E+02  +2.277E+04  -1.079E+02  -5.690E+01  -1.644E+03  +9.150E+02  +2.265E+04
  +6.94E+03  +1.66E+05  +1.74E+05  +8.461E+02  +2.277E+04  -1.079E+02  -5.690E+01  -1.644E+03  +9.150E+02  +2.265E+04

element # = 764     type =4-n tetrahedron
 XX         YY         ZZ         SIGXX       SIGYY       SIGZZ       TAUXY       TAUYZ       TAUZX       SIGV
  +2.93E+04  +5.00E+05  +1.93E+05  +4.489E+02  +8.478E+03  -2.440E+02  -2.066E+01  -8.606E+02  +3.566E+02  +8.551E+03
  +6.91E+03  +4.99E+05  +1.71E+05  +4.489E+02  +8.478E+03  -2.440E+02  -2.066E+01  -8.606E+02  +3.566E+02  +8.551E+03
  +6.91E+03  +5.10E+05  +1.93E+05  +4.489E+02  +8.478E+03  -2.440E+02  -2.066E+01  -8.606E+02  +3.566E+02  +8.551E+03
  +6.91E+03  +4.89E+05  +1.93E+05  +4.489E+02  +8.478E+03  -2.440E+02  -2.066E+01  -8.606E+02  +3.566E+02  +8.551E+03

element # = 765     type =4-n tetrahedron
 XX         YY         ZZ         SIGXX       SIGYY       SIGZZ       TAUXY       TAUYZ       TAUZX       SIGV
  +5.42E+03  +8.73E+05  +1.59E+05  -6.041E+01  +3.107E+02  -5.260E+02  -2.490E+01  -2.561E+02  +1.479E+01  +8.523E+02
  +5.42E+03  +8.60E+05  +1.82E+05  -6.041E+01  +3.107E+02  -5.260E+02  -2.490E+01  -2.561E+02  +1.479E+01  +8.523E+02
  +2.30E+04  +8.66E+05  +1.68E+05  -6.041E+01  +3.107E+02  -5.260E+02  -2.490E+01  -2.561E+02  +1.479E+01  +8.523E+02
  +5.42E+03  +8.51E+05  +1.59E+05  -6.041E+01  +3.107E+02  -5.260E+02  -2.490E+01  -2.561E+02  +1.479E+01  +8.523E+02

element # = 766     type =4-n tetrahedron
 XX         YY         ZZ         SIGXX       SIGYY       SIGZZ       TAUXY       TAUYZ       TAUZX       SIGV
  +3.81E+04  +7.93E+05  +1.86E+05  +4.870E+01  +9.527E+02  -5.543E+02  -4.156E+01  -2.847E+02  -9.321E+00  +1.405E+03
  +1.57E+04  +7.93E+05  +1.64E+05  +4.870E+01  +9.527E+02  -5.543E+02  -4.156E+01  -2.847E+02  -9.321E+00  +1.405E+03
  +4.42E+04  +8.03E+05  +1.63E+05  +4.870E+01  +9.527E+02  -5.543E+02  -4.156E+01  -2.847E+02  -9.321E+00  +1.405E+03
  +1.57E+04  +8.03E+05  +1.86E+05  +4.870E+01  +9.527E+02  -5.543E+02  -4.156E+01  -2.847E+02  -9.321E+00  +1.405E+03

element # = 767     type =4-n tetrahedron
 XX         YY         ZZ         SIGXX       SIGYY       SIGZZ       TAUXY       TAUYZ       TAUZX       SIGV
  +8.79E+03  +8.10E+05  +1.79E+05  -3.076E+01  +5.931E+02  -5.347E+02  -2.095E+01  -3.555E+02  +4.691E+01  +1.160E+03
  +8.79E+03  +8.00E+05  +1.57E+05  -3.076E+01  +5.931E+02  -5.347E+02  -2.095E+01  -3.555E+02  +4.691E+01  +1.160E+03
  +3.72E+04  +8.10E+05  +1.56E+05  -3.076E+01  +5.931E+02  -5.347E+02  -2.095E+01  -3.555E+02  +4.691E+01  +1.160E+03
  +8.79E+03  +8.22E+05  +1.57E+05  -3.076E+01  +5.931E+02  -5.347E+02  -2.095E+01  -3.555E+02  +4.691E+01  +1.160E+03

element # = 768     type =4-n tetrahedron
 XX         YY         ZZ         SIGXX       SIGYY       SIGZZ       TAUXY       TAUYZ       TAUZX       SIGV
  +1.02E+05  +1.71E+05  +1.69E+04  -3.586E+03  -2.256E+04  -1.231E+03  +1.391E+03  -2.595E+03  -3.163E+02  +2.090E+04
  +1.19E+05  +1.64E+05  +4.63E+04  -3.586E+03  -2.256E+04  -1.231E+03  +1.391E+03  -2.595E+03  -3.163E+02  +2.090E+04
  +1.02E+05  +1.49E+05  +1.69E+04  -3.586E+03  -2.256E+04  -1.231E+03  +1.391E+03  -2.595E+03  -3.163E+02  +2.090E+04
  +8.90E+04  +1.46E+05  +4.24E+04  -3.586E+03  -2.256E+04  -1.231E+03  +1.391E+03  -2.595E+03  -3.163E+02  +2.090E+04

element # = 769     type =4-n tetrahedron
 XX         YY         ZZ         SIGXX       SIGYY       SIGZZ       TAUXY       TAUYZ       TAUZX       SIGV
  +8.52E+04  +2.74E+05  +1.95E+05  +1.260E+03  +1.931E+04  +1.451E+03  -1.978E+02  -6.638E+02  -2.067E+02  +1.800E+04
  +5.96E+04  +2.69E+05  +1.79E+05  +1.260E+03  +1.931E+04  +1.451E+03  -1.978E+02  -6.638E+02  -2.067E+02  +1.800E+04
  +6.29E+04  +2.63E+05  +1.95E+05  +1.260E+03  +1.931E+04  +1.451E+03  -1.978E+02  -6.638E+02  -2.067E+02  +1.800E+04
  +8.52E+04  +2.52E+05  +1.95E+05  +1.260E+03  +1.931E+04  +1.451E+03  -1.978E+02  -6.638E+02  -2.067E+02  +1.800E+04

element # = 770     type =4-n tetrahedron
 XX         YY         ZZ         SIGXX       SIGYY       SIGZZ       TAUXY       TAUYZ       TAUZX       SIGV
  +1.05E+05  +3.83E+05  +6.41E+04  -5.708E+01  -5.124E+03  -1.578E+01  +2.225E+02  -1.672E+03  -6.096E+01  +5.868E+03
  +7.11E+04  +3.62E+05  +7.24E+04  -5.708E+01  -5.124E+03  -1.578E+01  +2.225E+02  -1.672E+03  -6.096E+01  +5.868E+03
  +1.04E+05  +3.56E+05  +6.06E+04  -5.708E+01  -5.124E+03  -1.578E+01  +2.225E+02  -1.672E+03  -6.096E+01  +5.868E+03
  +7.12E+04  +3.82E+05  +5.29E+04  -5.708E+01  -5.124E+03  -1.578E+01  +2.225E+02  -1.672E+03  -6.096E+01  +5.868E+03

element # = 771     type =4-n tetrahedron
 XX         YY         ZZ         SIGXX       SIGYY       SIGZZ       TAUXY       TAUYZ       TAUZX       SIGV
  +5.49E+04  +3.33E+05  +8.37E+04  +3.192E+01  -1.284E+03  +2.555E+02  +4.449E+02  -3.117E+03  +4.424E+02  +5.693E+03
  +5.11E+04  +3.13E+05  +9.55E+04  +3.192E+01  -1.284E+03  +2.555E+02  +4.449E+02  -3.117E+03  +4.424E+02  +5.693E+03
  +7.35E+04  +3.07E+05  +8.57E+04  +3.192E+01  -1.284E+03  +2.555E+02  +4.449E+02  -3.117E+03  +4.424E+02  +5.693E+03
  +5.44E+04  +3.19E+05  +6.71E+04  +3.192E+01  -1.284E+03  +2.555E+02  +4.449E+02  -3.117E+03  +4.424E+02  +5.693E+03

element # = 772     type =4-n tetrahedron
 XX         YY         ZZ         SIGXX       SIGYY       SIGZZ       TAUXY       TAUYZ       TAUZX       SIGV
  +1.48E+05  +4.00E+05  +8.67E+04  -1.948E+02  -1.571E+02  -8.112E+02  +3.863E+01  -2.451E+03  +2.682E+02  +4.319E+03
  +1.81E+05  +3.92E+05  +1.02E+05  -1.948E+02  -1.571E+02  -8.112E+02  +3.863E+01  -2.451E+03  +2.682E+02  +4.319E+03
  +1.54E+05  +3.98E+05  +1.23E+05  -1.948E+02  -1.571E+02  -8.112E+02  +3.863E+01  -2.451E+03  +2.682E+02  +4.319E+03
  +1.81E+05  +4.13E+05  +1.02E+05  -1.948E+02  -1.571E+02  -8.112E+02  +3.863E+01  -2.451E+03  +2.682E+02  +4.319E+03

element # = 773     type =4-n tetrahedron
 XX         YY         ZZ         SIGXX       SIGYY       SIGZZ       TAUXY       TAUYZ       TAUZX       SIGV
  +1.78E+05  +3.69E+05  +1.63E+05  +2.177E+03  +1.299E+04  +1.069E+03  +1.047E+03  -8.357E+02  +5.030E+01  +1.164E+04
  +1.55E+05  +3.90E+05  +1.86E+05  +2.177E+03  +1.299E+04  +1.069E+03  +1.047E+03  -8.357E+02  +5.030E+01  +1.164E+04
  +1.55E+05  +3.69E+05  +1.86E+05  +2.177E+03  +1.299E+04  +1.069E+03  +1.047E+03  -8.357E+02  +5.030E+01  +1.164E+04
  +1.51E+05  +3.86E+05  +1.62E+05  +2.177E+03  +1.299E+04  +1.069E+03  +1.047E+03  -8.357E+02  +5.030E+01  +1.164E+04

element # = 774     type =4-n tetrahedron
 XX         YY         ZZ         SIGXX       SIGYY       SIGZZ       TAUXY       TAUYZ       TAUZX       SIGV
  +1.70E+05  +7.72E+03  +5.41E+04  -6.936E+03  -1.618E+04  -6.936E+03  +1.893E+03  -4.080E+03  -3.863E-13  +1.209E+04
  +1.93E+05  +7.72E+03  +4.89E+04  -6.936E+03  -1.618E+04  -6.936E+03  +1.893E+03  -4.080E+03  -3.863E-13  +1.209E+04
  +1.93E+05  +7.72E+03  +6.67E+04  -6.936E+03  -1.618E+04  -6.936E+03  +1.893E+03  -4.080E+03  -3.863E-13  +1.209E+04
  +1.93E+05  +3.27E+04  +5.44E+04  -6.936E+03  -1.618E+04  -6.936E+03  +1.893E+03  -4.080E+03  -3.863E-13  +1.209E+04

element # = 775     type =4-n tetrahedron
 XX         YY         ZZ         SIGXX       SIGYY       SIGZZ       TAUXY       TAUYZ       TAUZX       SIGV
  +1.72E+05  +3.60E+05  +4.64E+04  +3.764E+02  -4.727E+03  +9.460E+02  -1.767E+02  -1.580E+03  +4.238E+02  +6.115E+03
  +1.50E+05  +3.60E+05  +2.41E+04  +3.764E+02  -4.727E+03  +9.460E+02  -1.767E+02  -1.580E+03  +4.238E+02  +6.115E+03
  +1.39E+05  +3.79E+05  +5.36E+04  +3.764E+02  -4.727E+03  +9.460E+02  -1.767E+02  -1.580E+03  +4.238E+02  +6.115E+03
  +1.38E+05  +3.51E+05  +5.01E+04  +3.764E+02  -4.727E+03  +9.460E+02  -1.767E+02  -1.580E+03  +4.238E+02  +6.115E+03

element # = 776     type =4-n tetrahedron
 XX         YY         ZZ         SIGXX       SIGYY       SIGZZ       TAUXY       TAUYZ       TAUZX       SIGV
  +1.93E+05  +6.74E+05  +1.64E+05  -3.355E+02  +1.645E+03  -8.398E+02  +2.022E+02  -5.734E+02  -1.892E+01  +2.507E+03
  +1.71E+05  +6.53E+05  +1.86E+05  -3.355E+02  +1.645E+03  -8.398E+02  +2.022E+02  -5.734E+02  -1.892E+01  +2.507E+03
  +1.93E+05  +6.63E+05  +1.86E+05  -3.355E+02  +1.645E+03  -8.398E+02  +2.022E+02  -5.734E+02  -1.892E+01  +2.507E+03
  +1.93E+05  +6.53E+05  +1.64E+05  -3.355E+02  +1.645E+03  -8.398E+02  +2.022E+02  -5.734E+02  -1.892E+01  +2.507E+03

element # = 777     type =4-n tetrahedron
 XX         YY         ZZ         SIGXX       SIGYY       SIGZZ       TAUXY       TAUYZ       TAUZX       SIGV
  +1.86E+05  +6.81E+05  +1.71E+05  +3.589E+02  +3.585E+03  +7.948E+01  +7.075E+01  -2.002E+02  -3.047E+00  +3.394E+03
  +1.64E+05  +6.60E+05  +1.93E+05  +3.589E+02  +3.585E+03  +7.948E+01  +7.075E+01  -2.002E+02  -3.047E+00  +3.394E+03
  +1.64E+05  +6.81E+05  +1.93E+05  +3.589E+02  +3.585E+03  +7.948E+01  +7.075E+01  -2.002E+02  -3.047E+00  +3.394E+03
  +1.86E+05  +6.70E+05  +1.93E+05  +3.589E+02  +3.585E+03  +7.948E+01  +7.075E+01  -2.002E+02  -3.047E+00  +3.394E+03

element # = 778     type =4-n tetrahedron
 XX         YY         ZZ         SIGXX       SIGYY       SIGZZ       TAUXY       TAUYZ       TAUZX       SIGV
  +1.45E+05  +7.22E+04  +8.58E+04  -3.081E+03  -5.347E+03  -3.937E+03  -2.391E+02  -3.768E+03  -1.408E+03  +7.255E+03
  +1.43E+05  +5.82E+04  +1.29E+05  -3.081E+03  -5.347E+03  -3.937E+03  -2.391E+02  -3.768E+03  -1.408E+03  +7.255E+03
  +1.70E+05  +5.07E+04  +1.03E+05  -3.081E+03  -5.347E+03  -3.937E+03  -2.391E+02  -3.768E+03  -1.408E+03  +7.255E+03
  +1.24E+05  +5.33E+04  +1.03E+05  -3.081E+03  -5.347E+03  -3.937E+03  -2.391E+02  -3.768E+03  -1.408E+03  +7.255E+03

element # = 779     type =4-n tetrahedron
 XX         YY         ZZ         SIGXX       SIGYY       SIGZZ       TAUXY       TAUYZ       TAUZX       SIGV
  +1.71E+05  +6.91E+05  +1.93E+05  +1.164E+02  +3.131E+03  -4.819E+02  +8.064E+01  -5.203E+02  -1.147E+02  +3.481E+03
  +1.93E+05  +6.80E+05  +1.93E+05  +1.164E+02  +3.131E+03  -4.819E+02  +8.064E+01  -5.203E+02  -1.147E+02  +3.481E+03
  +1.93E+05  +7.01E+05  +1.93E+05  +1.164E+02  +3.131E+03  -4.819E+02  +8.064E+01  -5.203E+02  -1.147E+02  +3.481E+03
  +1.93E+05  +6.91E+05  +1.71E+05  +1.164E+02  +3.131E+03  -4.819E+02  +8.064E+01  -5.203E+02  -1.147E+02  +3.481E+03

element # = 780     type =4-n tetrahedron
 XX         YY         ZZ         SIGXX       SIGYY       SIGZZ       TAUXY       TAUYZ       TAUZX       SIGV
  +4.52E+04  +7.86E+05  +1.81E+05  +7.514E+01  +1.007E+03  -4.994E+02  -3.828E+01  -2.459E+02  -1.872E+01  +1.386E+03
  +2.28E+04  +7.86E+05  +1.59E+05  +7.514E+01  +1.007E+03  -4.994E+02  -3.828E+01  -2.459E+02  -1.872E+01  +1.386E+03
  +4.58E+04  +7.75E+05  +1.66E+05  +7.514E+01  +1.007E+03  -4.994E+02  -3.828E+01  -2.459E+02  -1.872E+01  +1.386E+03
  +5.13E+04  +7.96E+05  +1.58E+05  +7.514E+01  +1.007E+03  -4.994E+02  -3.828E+01  -2.459E+02  -1.872E+01  +1.386E+03

element # = 781     type =4-n tetrahedron
 XX         YY         ZZ         SIGXX       SIGYY       SIGZZ       TAUXY       TAUYZ       TAUZX       SIGV
  +1.50E+05  +1.21E+04  +7.17E+04  -8.226E+02  -1.215E+03  -5.969E+02  -9.635E+01  -3.322E+03  -1.020E+01  +5.783E+03
  +1.54E+05  +1.21E+04  +9.33E+04  -8.226E+02  -1.215E+03  -5.969E+02  -9.635E+01  -3.322E+03  -1.020E+01  +5.783E+03
  +1.27E+05  +3.31E+04  +9.34E+04  -8.226E+02  -1.215E+03  -5.969E+02  -9.635E+01  -3.322E+03  -1.020E+01  +5.783E+03
  +1.73E+05  +3.05E+04  +9.33E+04  -8.226E+02  -1.215E+03  -5.969E+02  -9.635E+01  -3.322E+03  -1.020E+01  +5.783E+03

element # = 782     type =4-n tetrahedron
 XX         YY         ZZ         SIGXX       SIGYY       SIGZZ       TAUXY       TAUYZ       TAUZX       SIGV
  +1.21E+05  +4.75E+04  +1.50E+05  +1.802E+03  +1.547E+04  +8.702E+02  +1.181E+02  -6.067E+02  -2.661E+02  +1.420E+04
  +1.03E+05  +2.17E+04  +1.50E+05  +1.802E+03  +1.547E+04  +8.702E+02  +1.181E+02  -6.067E+02  -2.661E+02  +1.420E+04
  +1.02E+05  +4.27E+04  +1.24E+05  +1.802E+03  +1.547E+04  +8.702E+02  +1.181E+02  -6.067E+02  -2.661E+02  +1.420E+04
  +9.36E+04  +4.53E+04  +1.50E+05  +1.802E+03  +1.547E+04  +8.702E+02  +1.181E+02  -6.067E+02  -2.661E+02  +1.420E+04

element # = 783     type =4-n tetrahedron
 XX         YY         ZZ         SIGXX       SIGYY       SIGZZ       TAUXY       TAUYZ       TAUZX       SIGV
  +1.01E+05  +2.07E+05  +1.69E+05  +1.645E+03  +2.131E+04  +1.044E+02  +1.126E+02  -2.236E+03  +1.113E+03  +2.093E+04
  +1.28E+05  +2.11E+05  +1.93E+05  +1.645E+03  +2.131E+04  +1.044E+02  +1.126E+02  -2.236E+03  +1.113E+03  +2.093E+04
  +1.05E+05  +2.00E+05  +1.93E+05  +1.645E+03  +2.131E+04  +1.044E+02  +1.126E+02  -2.236E+03  +1.113E+03  +2.093E+04
  +1.05E+05  +2.22E+05  +1.93E+05  +1.645E+03  +2.131E+04  +1.044E+02  +1.126E+02  -2.236E+03  +1.113E+03  +2.093E+04

element # = 784     type =4-n tetrahedron
 XX         YY         ZZ         SIGXX       SIGYY       SIGZZ       TAUXY       TAUYZ       TAUZX       SIGV
  +1.10E+05  +3.02E+05  +8.04E+03  -1.796E+03  -1.544E+04  -1.388E+03  -2.633E+02  -4.432E+02  +9.122E+02  +1.397E+04
  +1.33E+05  +3.13E+05  +8.04E+03  -1.796E+03  -1.544E+04  -1.388E+03  -2.633E+02  -4.432E+02  +9.122E+02  +1.397E+04
  +1.21E+05  +3.26E+05  +3.41E+04  -1.796E+03  -1.544E+04  -1.388E+03  -2.633E+02  -4.432E+02  +9.122E+02  +1.397E+04
  +1.10E+05  +3.24E+05  +8.04E+03  -1.796E+03  -1.544E+04  -1.388E+03  -2.633E+02  -4.432E+02  +9.122E+02  +1.397E+04

element # = 785     type =4-n tetrahedron
 XX         YY         ZZ         SIGXX       SIGYY       SIGZZ       TAUXY       TAUYZ       TAUZX       SIGV
  +1.60E+05  +6.54E+04  +6.43E+04  -1.536E+03  -1.202E+04  -4.348E+03  -7.402E+01  -2.535E+03  +4.002E+02  +1.039E+04
  +1.85E+05  +4.40E+04  +8.15E+04  -1.536E+03  -1.202E+04  -4.348E+03  -7.402E+01  -2.535E+03  +4.002E+02  +1.039E+04
  +1.85E+05  +5.07E+04  +6.02E+04  -1.536E+03  -1.202E+04  -4.348E+03  -7.402E+01  -2.535E+03  +4.002E+02  +1.039E+04
  +1.62E+05  +2.57E+04  +5.98E+04  -1.536E+03  -1.202E+04  -4.348E+03  -7.402E+01  -2.535E+03  +4.002E+02  +1.039E+04

element # = 786     type =4-n tetrahedron
 XX         YY         ZZ         SIGXX       SIGYY       SIGZZ       TAUXY       TAUYZ       TAUZX       SIGV
  +6.55E+04  +4.55E+05  +8.76E+03  -7.575E+02  -1.006E+04  -1.432E+03  +1.910E+02  -2.428E+02  +5.891E+01  +9.005E+03
  +8.79E+04  +4.44E+05  +8.76E+03  -7.575E+02  -1.006E+04  -1.432E+03  +1.910E+02  -2.428E+02  +5.891E+01  +9.005E+03
  +7.09E+04  +4.62E+05  +3.71E+04  -7.575E+02  -1.006E+04  -1.432E+03  +1.910E+02  -2.428E+02  +5.891E+01  +9.005E+03
  +8.79E+04  +4.65E+05  +8.76E+03  -7.575E+02  -1.006E+04  -1.432E+03  +1.910E+02  -2.428E+02  +5.891E+01  +9.005E+03

element # = 787     type =4-n tetrahedron
 XX         YY         ZZ         SIGXX       SIGYY       SIGZZ       TAUXY       TAUYZ       TAUZX       SIGV
  +1.86E+05  +5.38E+05  +2.93E+04  -6.666E+02  -7.092E+03  -1.110E+03  -3.692E+02  -4.247E+02  +6.252E+01  +6.293E+03
  +1.64E+05  +5.16E+05  +6.91E+03  -6.666E+02  -7.092E+03  -1.110E+03  -3.692E+02  -4.247E+02  +6.252E+01  +6.293E+03
  +1.86E+05  +5.27E+05  +6.91E+03  -6.666E+02  -7.092E+03  -1.110E+03  -3.692E+02  -4.247E+02  +6.252E+01  +6.293E+03
  +1.64E+05  +5.38E+05  +6.91E+03  -6.666E+02  -7.092E+03  -1.110E+03  -3.692E+02  -4.247E+02  +6.252E+01  +6.293E+03

element # = 788     type =4-n tetrahedron
 XX         YY         ZZ         SIGXX       SIGYY       SIGZZ       TAUXY       TAUYZ       TAUZX       SIGV
  +9.64E+04  +3.43E+05  +8.04E+03  -6.060E+02  -1.424E+04  +1.070E+03  +2.508E+02  -1.395E+03  -5.961E+02  +1.479E+04
  +1.07E+05  +3.45E+05  +3.41E+04  -6.060E+02  -1.424E+04  +1.070E+03  +2.508E+02  -1.395E+03  -5.961E+02  +1.479E+04
  +7.41E+04  +3.54E+05  +8.04E+03  -6.060E+02  -1.424E+04  +1.070E+03  +2.508E+02  -1.395E+03  -5.961E+02  +1.479E+04
  +9.64E+04  +3.65E+05  +8.04E+03  -6.060E+02  -1.424E+04  +1.070E+03  +2.508E+02  -1.395E+03  -5.961E+02  +1.479E+04

element # = 789     type =4-n tetrahedron
 XX         YY         ZZ         SIGXX       SIGYY       SIGZZ       TAUXY       TAUYZ       TAUZX       SIGV
  +1.33E+04  +4.29E+05  +5.53E+04  +2.312E+02  -4.704E+03  -3.576E+02  +2.845E+02  -2.774E+03  -5.480E+01  +6.719E+03
  +3.61E+04  +4.05E+05  +5.12E+04  +2.312E+02  -4.704E+03  -3.576E+02  +2.845E+02  -2.774E+03  -5.480E+01  +6.719E+03
  +1.33E+04  +4.08E+05  +5.37E+04  +2.312E+02  -4.704E+03  -3.576E+02  +2.845E+02  -2.774E+03  -5.480E+01  +6.719E+03
  +3.36E+04  +4.10E+05  +7.77E+04  +2.312E+02  -4.704E+03  -3.576E+02  +2.845E+02  -2.774E+03  -5.480E+01  +6.719E+03

element # = 790     type =4-n tetrahedron
 XX         YY         ZZ         SIGXX       SIGYY       SIGZZ       TAUXY       TAUYZ       TAUZX       SIGV
  +1.92E+05  +6.36E+05  +8.71E+04  +6.845E+02  +4.681E+02  +1.914E+02  +2.098E+02  -1.274E+03  -1.981E+02  +2.303E+03
  +1.92E+05  +6.47E+05  +6.47E+04  +6.845E+02  +4.681E+02  +1.914E+02  +2.098E+02  -1.274E+03  -1.981E+02  +2.303E+03
  +1.92E+05  +6.57E+05  +8.71E+04  +6.845E+02  +4.681E+02  +1.914E+02  +2.098E+02  -1.274E+03  -1.981E+02  +2.303E+03
  +1.67E+05  +6.58E+05  +6.76E+04  +6.845E+02  +4.681E+02  +1.914E+02  +2.098E+02  -1.274E+03  -1.981E+02  +2.303E+03

element # = 791     type =4-n tetrahedron
 XX         YY         ZZ         SIGXX       SIGYY       SIGZZ       TAUXY       TAUYZ       TAUZX       SIGV
  +3.59E+04  +4.47E+05  +9.81E+04  +1.393E+03  +2.819E+02  +5.134E+02  -6.686E+02  -9.669E+02  +5.152E+01  +2.277E+03
  +1.98E+04  +4.46E+05  +6.82E+04  +1.393E+03  +2.819E+02  +5.134E+02  -6.686E+02  -9.669E+02  +5.152E+01  +2.277E+03
  +4.01E+04  +4.27E+05  +9.05E+04  +1.393E+03  +2.819E+02  +5.134E+02  -6.686E+02  -9.669E+02  +5.152E+01  +2.277E+03
  +4.76E+04  +4.55E+05  +7.41E+04  +1.393E+03  +2.819E+02  +5.134E+02  -6.686E+02  -9.669E+02  +5.152E+01  +2.277E+03

element # = 792     type =4-n tetrahedron
 XX         YY         ZZ         SIGXX       SIGYY       SIGZZ       TAUXY       TAUYZ       TAUZX       SIGV
  +1.28E+05  +4.38E+05  +1.24E+05  +1.405E+03  +5.596E+03  -1.936E+02  +3.055E+02  -9.456E+02  -2.380E+02  +5.473E+03
  +1.49E+05  +4.37E+05  +1.40E+05  +1.405E+03  +5.596E+03  -1.936E+02  +3.055E+02  -9.456E+02  -2.380E+02  +5.473E+03
  +1.71E+05  +4.29E+05  +1.16E+05  +1.405E+03  +5.596E+03  -1.936E+02  +3.055E+02  -9.456E+02  -2.380E+02  +5.473E+03
  +1.44E+05  +4.14E+05  +1.37E+05  +1.405E+03  +5.596E+03  -1.936E+02  +3.055E+02  -9.456E+02  -2.380E+02  +5.473E+03

element # = 793     type =4-n tetrahedron
 XX         YY         ZZ         SIGXX       SIGYY       SIGZZ       TAUXY       TAUYZ       TAUZX       SIGV
  +1.08E+05  +6.11E+05  +1.83E+05  +1.087E+03  +5.279E+03  +5.624E+02  -2.516E+02  -4.682E+02  +2.633E+02  +4.594E+03
  +1.08E+05  +5.90E+05  +1.83E+05  +1.087E+03  +5.279E+03  +5.624E+02  -2.516E+02  -4.682E+02  +2.633E+02  +4.594E+03
  +1.31E+05  +6.10E+05  +1.62E+05  +1.087E+03  +5.279E+03  +5.624E+02  -2.516E+02  -4.682E+02  +2.633E+02  +4.594E+03
  +1.09E+05  +6.09E+05  +1.47E+05  +1.087E+03  +5.279E+03  +5.624E+02  -2.516E+02  -4.682E+02  +2.633E+02  +4.594E+03

element # = 794     type =4-n tetrahedron
 XX         YY         ZZ         SIGXX       SIGYY       SIGZZ       TAUXY       TAUYZ       TAUZX       SIGV
  +1.41E+05  +1.34E+05  +1.12E+05  -2.246E+03  -1.097E+04  -6.762E+02  +1.956E+02  -2.942E+03  +1.088E+03  +1.104E+04
  +1.49E+05  +1.14E+05  +7.81E+04  -2.246E+03  -1.097E+04  -6.762E+02  +1.956E+02  -2.942E+03  +1.088E+03  +1.104E+04
  +1.74E+05  +1.36E+05  +9.52E+04  -2.246E+03  -1.097E+04  -6.762E+02  +1.956E+02  -2.942E+03  +1.088E+03  +1.104E+04
  +1.47E+05  +1.51E+05  +7.99E+04  -2.246E+03  -1.097E+04  -6.762E+02  +1.956E+02  -2.942E+03  +1.088E+03  +1.104E+04

element # = 795     type =4-n tetrahedron
 XX         YY         ZZ         SIGXX       SIGYY       SIGZZ       TAUXY       TAUYZ       TAUZX       SIGV
  +1.59E+05  +5.51E+05  +1.20E+05  -4.213E+02  -5.666E+02  -3.129E+01  -2.075E+02  -1.559E+03  +9.606E+01  +2.771E+03
  +1.84E+05  +5.34E+05  +1.01E+05  -4.213E+02  -5.666E+02  -3.129E+01  -2.075E+02  -1.559E+03  +9.606E+01  +2.771E+03
  +1.84E+05  +5.55E+05  +1.01E+05  -4.213E+02  -5.666E+02  -3.129E+01  -2.075E+02  -1.559E+03  +9.606E+01  +2.771E+03
  +1.56E+05  +5.29E+05  +8.44E+04  -4.213E+02  -5.666E+02  -3.129E+01  -2.075E+02  -1.559E+03  +9.606E+01  +2.771E+03

element # = 796     type =4-n tetrahedron
 XX         YY         ZZ         SIGXX       SIGYY       SIGZZ       TAUXY       TAUYZ       TAUZX       SIGV
  +1.65E+05  +1.68E+05  +7.30E+04  +3.541E+03  +1.968E+03  +6.970E+02  -3.801E+02  -3.044E+03  -1.901E+03  +6.721E+03
  +1.92E+05  +1.65E+05  +6.61E+04  +3.541E+03  +1.968E+03  +6.970E+02  -3.801E+02  -3.044E+03  -1.901E+03  +6.721E+03
  +1.92E+05  +1.53E+05  +8.84E+04  +3.541E+03  +1.968E+03  +6.970E+02  -3.801E+02  -3.044E+03  -1.901E+03  +6.721E+03
  +1.92E+05  +1.76E+05  +8.84E+04  +3.541E+03  +1.968E+03  +6.970E+02  -3.801E+02  -3.044E+03  -1.901E+03  +6.721E+03

element # = 797     type =4-n tetrahedron
 XX         YY         ZZ         SIGXX       SIGYY       SIGZZ       TAUXY       TAUYZ       TAUZX       SIGV
  +1.81E+05  +1.71E+05  +1.00E+05  +3.662E+02  +5.171E+02  -9.628E+02  -5.723E+00  -3.702E+03  -3.265E+02  +6.590E+03
  +1.54E+05  +1.64E+05  +8.51E+04  +3.662E+02  +5.171E+02  -9.628E+02  -5.723E+00  -3.702E+03  -3.265E+02  +6.590E+03
  +1.48E+05  +1.48E+05  +1.17E+05  +3.662E+02  +5.171E+02  -9.628E+02  -5.723E+00  -3.702E+03  -3.265E+02  +6.590E+03
  +1.81E+05  +1.49E+05  +1.00E+05  +3.662E+02  +5.171E+02  -9.628E+02  -5.723E+00  -3.702E+03  -3.265E+02  +6.590E+03

element # = 798     type =4-n tetrahedron
 XX         YY         ZZ         SIGXX       SIGYY       SIGZZ       TAUXY       TAUYZ       TAUZX       SIGV
  +1.82E+05  +1.24E+05  +9.99E+04  -5.831E+02  +5.157E+02  -8.205E+02  +1.489E+02  -3.659E+03  -9.788E+02  +6.681E+03
  +1.49E+05  +1.22E+05  +1.17E+05  -5.831E+02  +5.157E+02  -8.205E+02  +1.489E+02  -3.659E+03  -9.788E+02  +6.681E+03
  +1.82E+05  +1.01E+05  +9.99E+04  -5.831E+02  +5.157E+02  -8.205E+02  +1.489E+02  -3.659E+03  -9.788E+02  +6.681E+03
  +1.57E+05  +1.02E+05  +8.28E+04  -5.831E+02  +5.157E+02  -8.205E+02  +1.489E+02  -3.659E+03  -9.788E+02  +6.681E+03

element # = 799     type =4-n tetrahedron
 XX         YY         ZZ         SIGXX       SIGYY       SIGZZ       TAUXY       TAUYZ       TAUZX       SIGV
  +5.12E+04  +7.49E+05  +1.38E+05  -1.056E+02  +1.312E+03  -3.729E+02  -1.527E+01  -5.854E+02  +7.381E+01  +1.872E+03
  +5.04E+04  +7.24E+05  +1.55E+05  -1.056E+02  +1.312E+03  -3.729E+02  -1.527E+01  -5.854E+02  +7.381E+01  +1.872E+03
  +5.40E+04  +7.48E+05  +1.57E+05  -1.056E+02  +1.312E+03  -3.729E+02  -1.527E+01  -5.854E+02  +7.381E+01  +1.872E+03
  +6.85E+04  +7.28E+05  +1.48E+05  -1.056E+02  +1.312E+03  -3.729E+02  -1.527E+01  -5.854E+02  +7.381E+01  +1.872E+03

element # = 800     type =4-n tetrahedron
 XX         YY         ZZ         SIGXX       SIGYY       SIGZZ       TAUXY       TAUYZ       TAUZX       SIGV
  +1.90E+05  +1.27E+05  +1.12E+05  -1.926E+03  -1.357E+02  -1.649E+03  +7.541E+02  -2.471E+03  -1.703E+03  +5.614E+03
  +1.57E+05  +1.26E+05  +1.29E+05  -1.926E+03  -1.357E+02  -1.649E+03  +7.541E+02  -2.471E+03  -1.703E+03  +5.614E+03
  +1.90E+05  +1.16E+05  +1.34E+05  -1.926E+03  -1.357E+02  -1.649E+03  +7.541E+02  -2.471E+03  -1.703E+03  +5.614E+03
  +1.90E+05  +1.05E+05  +1.12E+05  -1.926E+03  -1.357E+02  -1.649E+03  +7.541E+02  -2.471E+03  -1.703E+03  +5.614E+03

element # = 801     type =4-n tetrahedron
 XX         YY         ZZ         SIGXX       SIGYY       SIGZZ       TAUXY       TAUYZ       TAUZX       SIGV
  +1.93E+05  +1.47E+05  +1.64E+05  -2.119E+03  +1.185E+04  -2.059E+03  +1.689E+03  -1.064E+03  -5.350E+02  +1.439E+04
  +1.70E+05  +1.24E+05  +1.86E+05  -2.119E+03  +1.185E+04  -2.059E+03  +1.689E+03  -1.064E+03  -5.350E+02  +1.439E+04
  +1.93E+05  +1.38E+05  +1.86E+05  -2.119E+03  +1.185E+04  -2.059E+03  +1.689E+03  -1.064E+03  -5.350E+02  +1.439E+04
  +1.93E+05  +1.24E+05  +1.64E+05  -2.119E+03  +1.185E+04  -2.059E+03  +1.689E+03  -1.064E+03  -5.350E+02  +1.439E+04

element # = 802     type =4-n tetrahedron
 XX         YY         ZZ         SIGXX       SIGYY       SIGZZ       TAUXY       TAUYZ       TAUZX       SIGV
  +5.44E+04  +6.93E+05  +1.72E+05  -3.525E+02  +1.582E+03  -7.160E+02  -3.639E+02  -4.378E+02  -7.287E+01  +2.359E+03
  +5.73E+04  +6.86E+05  +1.89E+05  -3.525E+02  +1.582E+03  -7.160E+02  -3.639E+02  -4.378E+02  -7.287E+01  +2.359E+03
  +7.96E+04  +6.75E+05  +1.89E+05  -3.525E+02  +1.582E+03  -7.160E+02  -3.639E+02  -4.378E+02  -7.287E+01  +2.359E+03
  +6.12E+04  +6.72E+05  +1.70E+05  -3.525E+02  +1.582E+03  -7.160E+02  -3.639E+02  -4.378E+02  -7.287E+01  +2.359E+03

element # = 803     type =4-n tetrahedron
 XX         YY         ZZ         SIGXX       SIGYY       SIGZZ       TAUXY       TAUYZ       TAUZX       SIGV
  +1.51E+05  +6.02E+05  +3.76E+04  -1.057E+02  -4.167E+03  +3.408E+01  +3.461E+02  -9.574E+02  -1.728E+02  +4.503E+03
  +1.55E+05  +6.28E+05  +1.42E+04  -1.057E+02  -4.167E+03  +3.408E+01  +3.461E+02  -9.574E+02  -1.728E+02  +4.503E+03
  +1.55E+05  +6.07E+05  +1.42E+04  -1.057E+02  -4.167E+03  +3.408E+01  +3.461E+02  -9.574E+02  -1.728E+02  +4.503E+03
  +1.78E+05  +6.28E+05  +3.65E+04  -1.057E+02  -4.167E+03  +3.408E+01  +3.461E+02  -9.574E+02  -1.728E+02  +4.503E+03

element # = 804     type =4-n tetrahedron
 XX         YY         ZZ         SIGXX       SIGYY       SIGZZ       TAUXY       TAUYZ       TAUZX       SIGV
  +9.61E+04  +1.85E+05  +1.29E+05  +4.467E+03  +1.181E+04  +1.657E+03  +4.014E+02  -3.057E+03  -9.153E+02  +1.065E+04
  +1.19E+05  +1.71E+05  +9.25E+04  +4.467E+03  +1.181E+04  +1.657E+03  +4.014E+02  -3.057E+03  -9.153E+02  +1.065E+04
  +7.89E+04  +1.72E+05  +1.11E+05  +4.467E+03  +1.181E+04  +1.657E+03  +4.014E+02  -3.057E+03  -9.153E+02  +1.065E+04
  +1.12E+05  +1.55E+05  +1.25E+05  +4.467E+03  +1.181E+04  +1.657E+03  +4.014E+02  -3.057E+03  -9.153E+02  +1.065E+04

element # = 805     type =4-n tetrahedron
 XX         YY         ZZ         SIGXX       SIGYY       SIGZZ       TAUXY       TAUYZ       TAUZX       SIGV
  +3.66E+04  +6.36E+05  +1.88E+05  +2.330E+02  +3.681E+03  -2.288E+02  -1.484E+02  -5.539E+02  +4.533E+01  +3.832E+03
  +1.43E+04  +6.36E+05  +1.66E+05  +2.330E+02  +3.681E+03  -2.288E+02  -1.484E+02  -5.539E+02  +4.533E+01  +3.832E+03
  +1.43E+04  +6.25E+05  +1.88E+05  +2.330E+02  +3.681E+03  -2.288E+02  -1.484E+02  -5.539E+02  +4.533E+01  +3.832E+03
  +3.80E+04  +6.23E+05  +1.72E+05  +2.330E+02  +3.681E+03  -2.288E+02  -1.484E+02  -5.539E+02  +4.533E+01  +3.832E+03

element # = 806     type =4-n tetrahedron
 XX         YY         ZZ         SIGXX       SIGYY       SIGZZ       TAUXY       TAUYZ       TAUZX       SIGV
  +1.13E+05  +2.74E+04  +1.07E+05  -2.101E+02  -4.902E+02  -2.101E+02  +1.686E+02  -3.308E+03  +0.000E+00  +5.744E+03
  +1.40E+05  +6.47E+03  +1.07E+05  -2.101E+02  -4.902E+02  -2.101E+02  +1.686E+02  -3.308E+03  +0.000E+00  +5.744E+03
  +1.14E+05  +6.47E+03  +1.07E+05  -2.101E+02  -4.902E+02  -2.101E+02  +1.686E+02  -3.308E+03  +0.000E+00  +5.744E+03
  +1.36E+05  +6.47E+03  +1.28E+05  -2.101E+02  -4.902E+02  -2.101E+02  +1.686E+02  -3.308E+03  +0.000E+00  +5.744E+03

element # = 807     type =4-n tetrahedron
 XX         YY         ZZ         SIGXX       SIGYY       SIGZZ       TAUXY       TAUYZ       TAUZX       SIGV
  +1.06E+05  +6.47E+03  +1.40E+05  -2.101E+02  -4.902E+02  -2.101E+02  +1.686E+02  -3.308E+03  +0.000E+00  +5.744E+03
  +1.05E+05  +2.74E+04  +1.15E+05  -2.101E+02  -4.902E+02  -2.101E+02  +1.686E+02  -3.308E+03  +0.000E+00  +5.744E+03
  +1.06E+05  +6.47E+03  +1.15E+05  -2.101E+02  -4.902E+02  -2.101E+02  +1.686E+02  -3.308E+03  +0.000E+00  +5.744E+03
  +1.28E+05  +6.47E+03  +1.36E+05  -2.101E+02  -4.902E+02  -2.101E+02  +1.686E+02  -3.308E+03  +0.000E+00  +5.744E+03

element # = 808     type =4-n tetrahedron
 XX         YY         ZZ         SIGXX       SIGYY       SIGZZ       TAUXY       TAUYZ       TAUZX       SIGV
  +1.20E+05  +9.93E+05  +8.66E+04  -1.345E+01  -5.410E+01  -1.712E+02  -5.242E+00  -9.352E+01  +1.952E+00  +2.155E+02
  +1.41E+05  +9.93E+05  +6.50E+04  -1.345E+01  -5.410E+01  -1.712E+02  -5.242E+00  -9.352E+01  +1.952E+00  +2.155E+02
  +1.37E+05  +9.69E+05  +6.48E+04  -1.345E+01  -5.410E+01  -1.712E+02  -5.242E+00  -9.352E+01  +1.952E+00  +2.155E+02
  +1.45E+05  +9.93E+05  +8.66E+04  -1.345E+01  -5.410E+01  -1.712E+02  -5.242E+00  -9.352E+01  +1.952E+00  +2.155E+02

element # = 809     type =4-n tetrahedron
 XX         YY         ZZ         SIGXX       SIGYY       SIGZZ       TAUXY       TAUYZ       TAUZX       SIGV
  +4.20E+04  +9.35E+05  +4.26E+04  +7.015E+00  -1.233E+02  -1.416E+02  +1.124E+01  -1.477E+02  -2.192E+01  +2.949E+02
  +4.73E+04  +9.51E+05  +6.13E+04  +7.015E+00  -1.233E+02  -1.416E+02  +1.124E+01  -1.477E+02  -2.192E+01  +2.949E+02
  +4.31E+04  +9.54E+05  +4.23E+04  +7.015E+00  -1.233E+02  -1.416E+02  +1.124E+01  -1.477E+02  -2.192E+01  +2.949E+02
  +6.42E+04  +9.37E+05  +4.80E+04  +7.015E+00  -1.233E+02  -1.416E+02  +1.124E+01  -1.477E+02  -2.192E+01  +2.949E+02

element # = 810     type =4-n tetrahedron
 XX         YY         ZZ         SIGXX       SIGYY       SIGZZ       TAUXY       TAUYZ       TAUZX       SIGV
  +4.51E+04  +7.71E+05  +1.55E+05  -1.357E+02  +4.198E+02  -6.289E+02  +1.442E+01  -7.412E+02  -3.754E+01  +1.574E+03
  +2.21E+04  +7.83E+05  +1.48E+05  -1.357E+02  +4.198E+02  -6.289E+02  +1.442E+01  -7.412E+02  -3.754E+01  +1.574E+03
  +4.23E+04  +7.72E+05  +1.37E+05  -1.357E+02  +4.198E+02  -6.289E+02  +1.442E+01  -7.412E+02  -3.754E+01  +1.574E+03
  +5.06E+04  +7.93E+05  +1.48E+05  -1.357E+02  +4.198E+02  -6.289E+02  +1.442E+01  -7.412E+02  -3.754E+01  +1.574E+03

element # = 811     type =4-n tetrahedron
 XX         YY         ZZ         SIGXX       SIGYY       SIGZZ       TAUXY       TAUYZ       TAUZX       SIGV
  +4.10E+04  +9.44E+05  +1.90E+05  -2.867E+01  +7.471E+01  -5.084E+02  +1.114E+01  -7.393E+01  -1.036E+01  +5.545E+02
  +3.67E+04  +9.53E+05  +1.77E+05  -2.867E+01  +7.471E+01  -5.084E+02  +1.114E+01  -7.393E+01  -1.036E+01  +5.545E+02
  +1.75E+04  +9.48E+05  +1.90E+05  -2.867E+01  +7.471E+01  -5.084E+02  +1.114E+01  -7.393E+01  -1.036E+01  +5.545E+02
  +3.18E+04  +9.32E+05  +1.74E+05  -2.867E+01  +7.471E+01  -5.084E+02  +1.114E+01  -7.393E+01  -1.036E+01  +5.545E+02

element # = 812     type =4-n tetrahedron
 XX         YY         ZZ         SIGXX       SIGYY       SIGZZ       TAUXY       TAUYZ       TAUZX       SIGV
  +1.86E+05  +3.67E+05  +1.71E+05  +1.251E+03  +1.274E+04  +1.163E+03  +3.810E+02  -1.502E+03  -1.163E+02  +1.184E+04
  +1.64E+05  +3.88E+05  +1.93E+05  +1.251E+03  +1.274E+04  +1.163E+03  +3.810E+02  -1.502E+03  -1.163E+02  +1.184E+04
  +1.86E+05  +3.78E+05  +1.93E+05  +1.251E+03  +1.274E+04  +1.163E+03  +3.810E+02  -1.502E+03  -1.163E+02  +1.184E+04
  +1.64E+05  +3.67E+05  +1.93E+05  +1.251E+03  +1.274E+04  +1.163E+03  +3.810E+02  -1.502E+03  -1.163E+02  +1.184E+04

element # = 813     type =4-n tetrahedron
 XX         YY         ZZ         SIGXX       SIGYY       SIGZZ       TAUXY       TAUYZ       TAUZX       SIGV
  +6.23E+03  +9.56E+05  +6.62E+04  -1.121E+01  -3.060E+01  -2.404E+02  +7.522E+00  -1.278E+02  -1.500E+01  +3.135E+02
  +2.64E+04  +9.63E+05  +7.73E+04  -1.121E+01  -3.060E+01  -2.404E+02  +7.522E+00  -1.278E+02  -1.500E+01  +3.135E+02
  +6.23E+03  +9.63E+05  +8.75E+04  -1.121E+01  -3.060E+01  -2.404E+02  +7.522E+00  -1.278E+02  -1.500E+01  +3.135E+02
  +6.23E+03  +9.81E+05  +7.86E+04  -1.121E+01  -3.060E+01  -2.404E+02  +7.522E+00  -1.278E+02  -1.500E+01  +3.135E+02

element # = 814     type =4-n tetrahedron
 XX         YY         ZZ         SIGXX       SIGYY       SIGZZ       TAUXY       TAUYZ       TAUZX       SIGV
  +5.93E+04  +4.96E+05  +1.50E+04  +1.285E+03  -2.341E+03  +1.043E+03  +6.235E+02  -1.395E+03  -1.439E+02  +4.404E+03
  +6.47E+04  +4.82E+05  +4.33E+04  +1.285E+03  -2.341E+03  +1.043E+03  +6.235E+02  -1.395E+03  -1.439E+02  +4.404E+03
  +6.16E+04  +5.07E+05  +3.52E+04  +1.285E+03  -2.341E+03  +1.043E+03  +6.235E+02  -1.395E+03  -1.439E+02  +4.404E+03
  +8.17E+04  +4.85E+05  +1.50E+04  +1.285E+03  -2.341E+03  +1.043E+03  +6.235E+02  -1.395E+03  -1.439E+02  +4.404E+03

element # = 815     type =4-n tetrahedron
 XX         YY         ZZ         SIGXX       SIGYY       SIGZZ       TAUXY       TAUYZ       TAUZX       SIGV
  +1.61E+05  +9.79E+05  +5.84E+04  -1.066E+01  -6.514E+01  -1.853E+02  +9.318E+00  -1.291E+02  +1.380E+01  +2.735E+02
  +1.56E+05  +9.56E+05  +5.82E+04  -1.066E+01  -6.514E+01  -1.853E+02  +9.318E+00  -1.291E+02  +1.380E+01  +2.735E+02
  +1.84E+05  +9.61E+05  +8.00E+04  -1.066E+01  -6.514E+01  -1.853E+02  +9.318E+00  -1.291E+02  +1.380E+01  +2.735E+02
  +1.84E+05  +9.54E+05  +5.88E+04  -1.066E+01  -6.514E+01  -1.853E+02  +9.318E+00  -1.291E+02  +1.380E+01  +2.735E+02

element # = 816     type =4-n tetrahedron
 XX         YY         ZZ         SIGXX       SIGYY       SIGZZ       TAUXY       TAUYZ       TAUZX       SIGV
  +1.36E+05  +6.09E+05  +3.85E+04  +2.957E+02  -1.981E+03  +3.734E+01  -2.924E+02  -4.973E+02  -4.814E+01  +2.381E+03
  +1.41E+05  +6.35E+05  +1.50E+04  +2.957E+02  -1.981E+03  +3.734E+01  -2.924E+02  -4.973E+02  -4.814E+01  +2.381E+03
  +1.37E+05  +6.47E+05  +4.03E+04  +2.957E+02  -1.981E+03  +3.734E+01  -2.924E+02  -4.973E+02  -4.814E+01  +2.381E+03
  +1.18E+05  +6.25E+05  +1.50E+04  +2.957E+02  -1.981E+03  +3.734E+01  -2.924E+02  -4.973E+02  -4.814E+01  +2.381E+03

element # = 817     type =4-n tetrahedron
 XX         YY         ZZ         SIGXX       SIGYY       SIGZZ       TAUXY       TAUYZ       TAUZX       SIGV
  +1.26E+05  +1.39E+04  +5.59E+04  -5.957E+03  -1.686E+04  -2.284E+03  -1.183E+03  -1.096E+03  +1.201E+02  +1.343E+04
  +9.82E+04  +3.80E+04  +5.21E+04  -5.957E+03  -1.686E+04  -2.284E+03  -1.183E+03  -1.096E+03  +1.201E+02  +1.343E+04
  +1.04E+05  +3.49E+04  +7.76E+04  -5.957E+03  -1.686E+04  -2.284E+03  -1.183E+03  -1.096E+03  +1.201E+02  +1.343E+04
  +1.04E+05  +1.39E+04  +5.19E+04  -5.957E+03  -1.686E+04  -2.284E+03  -1.183E+03  -1.096E+03  +1.201E+02  +1.343E+04

element # = 818     type =4-n tetrahedron
 XX         YY         ZZ         SIGXX       SIGYY       SIGZZ       TAUXY       TAUYZ       TAUZX       SIGV
  +7.14E+04  +6.47E+03  +6.38E+04  -2.101E+02  -4.902E+02  -2.101E+02  +1.686E+02  -3.308E+03  +0.000E+00  +5.744E+03
  +9.30E+04  +6.47E+03  +8.54E+04  -2.101E+02  -4.902E+02  -2.101E+02  +1.686E+02  -3.308E+03  +0.000E+00  +5.744E+03
  +9.21E+04  +2.74E+04  +8.55E+04  -2.101E+02  -4.902E+02  -2.101E+02  +1.686E+02  -3.308E+03  +0.000E+00  +5.744E+03
  +9.30E+04  +6.47E+03  +5.98E+04  -2.101E+02  -4.902E+02  -2.101E+02  +1.686E+02  -3.308E+03  +0.000E+00  +5.744E+03

element # = 819     type =4-n tetrahedron
 XX         YY         ZZ         SIGXX       SIGYY       SIGZZ       TAUXY       TAUYZ       TAUZX       SIGV
  +9.08E+04  +9.04E+05  +6.53E+03  -3.113E+01  -5.097E+02  -1.108E+02  +7.383E+01  -1.071E+02  -9.745E-01  +4.980E+02
  +9.08E+04  +8.81E+05  +6.53E+03  -3.113E+01  -5.097E+02  -1.108E+02  +7.383E+01  -1.071E+02  -9.745E-01  +4.980E+02
  +6.86E+04  +8.93E+05  +6.53E+03  -3.113E+01  -5.097E+02  -1.108E+02  +7.383E+01  -1.071E+02  -9.745E-01  +4.980E+02
  +8.31E+04  +9.11E+05  +2.76E+04  -3.113E+01  -5.097E+02  -1.108E+02  +7.383E+01  -1.071E+02  -9.745E-01  +4.980E+02

element # = 820     type =4-n tetrahedron
 XX         YY         ZZ         SIGXX       SIGYY       SIGZZ       TAUXY       TAUYZ       TAUZX       SIGV
  +4.41E+04  +9.52E+05  +3.17E+04  +6.521E+01  -5.449E+01  +9.673E+00  -7.257E+00  -6.854E+01  -2.003E+01  +1.619E+02
  +4.30E+04  +9.33E+05  +3.20E+04  +6.521E+01  -5.449E+01  +9.673E+00  -7.257E+00  -6.854E+01  -2.003E+01  +1.619E+02
  +6.52E+04  +9.35E+05  +3.73E+04  +6.521E+01  -5.449E+01  +9.673E+00  -7.257E+00  -6.854E+01  -2.003E+01  +1.619E+02
  +5.17E+04  +9.42E+05  +1.62E+04  +6.521E+01  -5.449E+01  +9.673E+00  -7.257E+00  -6.854E+01  -2.003E+01  +1.619E+02

element # = 821     type =4-n tetrahedron
 XX         YY         ZZ         SIGXX       SIGYY       SIGZZ       TAUXY       TAUYZ       TAUZX       SIGV
  +3.89E+04  +8.63E+05  +1.22E+05  -2.198E+01  +8.160E+01  -3.104E+02  +2.738E+01  -5.428E+02  +4.724E+01  +1.008E+03
  +3.24E+04  +8.39E+05  +1.04E+05  -2.198E+01  +8.160E+01  -3.104E+02  +2.738E+01  -5.428E+02  +4.724E+01  +1.008E+03
  +1.36E+04  +8.55E+05  +1.09E+05  -2.198E+01  +8.160E+01  -3.104E+02  +2.738E+01  -5.428E+02  +4.724E+01  +1.008E+03
  +1.36E+04  +8.44E+05  +1.31E+05  -2.198E+01  +8.160E+01  -3.104E+02  +2.738E+01  -5.428E+02  +4.724E+01  +1.008E+03

element # = 822     type =4-n tetrahedron
 XX         YY         ZZ         SIGXX       SIGYY       SIGZZ       TAUXY       TAUYZ       TAUZX       SIGV
  +5.50E+03  +5.44E+05  +1.66E+05  +5.512E+02  +6.121E+03  -2.713E+02  -5.020E+01  -7.797E+02  +1.633E+02  +6.180E+03
  +5.50E+03  +5.55E+05  +1.88E+05  +5.512E+02  +6.121E+03  -2.713E+02  -5.020E+01  -7.797E+02  +1.633E+02  +6.180E+03
  +2.33E+04  +5.35E+05  +1.73E+05  +5.512E+02  +6.121E+03  -2.713E+02  -5.020E+01  -7.797E+02  +1.633E+02  +6.180E+03
  +5.50E+03  +5.34E+05  +1.88E+05  +5.512E+02  +6.121E+03  -2.713E+02  -5.020E+01  -7.797E+02  +1.633E+02  +6.180E+03

element # = 823     type =4-n tetrahedron
 XX         YY         ZZ         SIGXX       SIGYY       SIGZZ       TAUXY       TAUYZ       TAUZX       SIGV
  +1.91E+05  +8.17E+05  +8.10E+04  -1.428E+02  -6.561E+02  -2.278E+02  -5.473E+01  -6.538E+02  -2.616E+01  +1.233E+03
  +1.91E+05  +8.28E+05  +5.87E+04  -1.428E+02  -6.561E+02  -2.278E+02  -5.473E+01  -6.538E+02  -2.616E+01  +1.233E+03
  +1.64E+05  +8.34E+05  +6.40E+04  -1.428E+02  -6.561E+02  -2.278E+02  -5.473E+01  -6.538E+02  -2.616E+01  +1.233E+03
  +1.91E+05  +8.06E+05  +5.87E+04  -1.428E+02  -6.561E+02  -2.278E+02  -5.473E+01  -6.538E+02  -2.616E+01  +1.233E+03

element # = 824     type =4-n tetrahedron
 XX         YY         ZZ         SIGXX       SIGYY       SIGZZ       TAUXY       TAUYZ       TAUZX       SIGV
  +1.19E+05  +3.69E+05  +1.19E+05  +1.281E+03  +3.946E+03  +8.765E+02  -8.659E+01  -1.979E+03  +3.735E+02  +4.531E+03
  +1.33E+05  +3.90E+05  +9.08E+04  +1.281E+03  +3.946E+03  +8.765E+02  -8.659E+01  -1.979E+03  +3.735E+02  +4.531E+03
  +1.67E+05  +3.82E+05  +1.06E+05  +1.281E+03  +3.946E+03  +8.765E+02  -8.659E+01  -1.979E+03  +3.735E+02  +4.531E+03
  +1.40E+05  +3.88E+05  +1.27E+05  +1.281E+03  +3.946E+03  +8.765E+02  -8.659E+01  -1.979E+03  +3.735E+02  +4.531E+03

element # = 825     type =4-n tetrahedron
 XX         YY         ZZ         SIGXX       SIGYY       SIGZZ       TAUXY       TAUYZ       TAUZX       SIGV
  +1.11E+04  +3.51E+05  +1.50E+05  +3.802E+01  +5.596E+03  -5.469E+02  -2.803E+02  -1.974E+03  +1.731E+02  +6.819E+03
  +2.74E+04  +3.52E+05  +1.34E+05  +3.802E+01  +5.596E+03  -5.469E+02  -2.803E+02  -1.974E+03  +1.731E+02  +6.819E+03
  +1.11E+04  +3.42E+05  +1.33E+05  +3.802E+01  +5.596E+03  -5.469E+02  -2.803E+02  -1.974E+03  +1.731E+02  +6.819E+03
  +3.06E+04  +3.39E+05  +1.49E+05  +3.802E+01  +5.596E+03  -5.469E+02  -2.803E+02  -1.974E+03  +1.731E+02  +6.819E+03

element # = 826     type =4-n tetrahedron
 XX         YY         ZZ         SIGXX       SIGYY       SIGZZ       TAUXY       TAUYZ       TAUZX       SIGV
  +5.42E+04  +3.80E+04  +7.26E+04  -1.840E+03  -1.316E+04  +4.073E+02  -3.926E+02  -5.370E+02  -3.150E+02  +1.266E+04
  +7.61E+04  +4.37E+04  +5.70E+04  -1.840E+03  -1.316E+04  +4.073E+02  -3.926E+02  -5.370E+02  -3.150E+02  +1.266E+04
  +6.07E+04  +1.96E+04  +6.08E+04  -1.840E+03  -1.316E+04  +4.073E+02  -3.926E+02  -5.370E+02  -3.150E+02  +1.266E+04
  +8.14E+04  +4.06E+04  +8.25E+04  -1.840E+03  -1.316E+04  +4.073E+02  -3.926E+02  -5.370E+02  -3.150E+02  +1.266E+04

element # = 827     type =4-n tetrahedron
 XX         YY         ZZ         SIGXX       SIGYY       SIGZZ       TAUXY       TAUYZ       TAUZX       SIGV
  +6.43E+04  +3.99E+05  +2.40E+04  -1.589E+02  -1.122E+04  +3.256E+02  +1.500E+02  -9.168E+02  +2.320E+02  +1.143E+04
  +8.63E+04  +4.14E+05  +5.67E+03  -1.589E+02  -1.122E+04  +3.256E+02  +1.500E+02  -9.168E+02  +2.320E+02  +1.143E+04
  +6.39E+04  +4.03E+05  +5.67E+03  -1.589E+02  -1.122E+04  +3.256E+02  +1.500E+02  -9.168E+02  +2.320E+02  +1.143E+04
  +8.63E+04  +3.93E+05  +5.67E+03  -1.589E+02  -1.122E+04  +3.256E+02  +1.500E+02  -9.168E+02  +2.320E+02  +1.143E+04

element # = 828     type =4-n tetrahedron
 XX         YY         ZZ         SIGXX       SIGYY       SIGZZ       TAUXY       TAUYZ       TAUZX       SIGV
  +8.49E+04  +3.80E+04  +5.21E+04  -4.959E+03  -1.537E+04  -1.823E+03  +4.184E+02  -1.207E+03  +7.180E+02  +1.254E+04
  +6.95E+04  +1.39E+04  +5.59E+04  -4.959E+03  -1.537E+04  -1.823E+03  +4.184E+02  -1.207E+03  +7.180E+02  +1.254E+04
  +9.01E+04  +3.49E+04  +7.76E+04  -4.959E+03  -1.537E+04  -1.823E+03  +4.184E+02  -1.207E+03  +7.180E+02  +1.254E+04
  +9.11E+04  +1.39E+04  +5.19E+04  -4.959E+03  -1.537E+04  -1.823E+03  +4.184E+02  -1.207E+03  +7.180E+02  +1.254E+04

element # = 829     type =4-n tetrahedron
 XX         YY         ZZ         SIGXX       SIGYY       SIGZZ       TAUXY       TAUYZ       TAUZX       SIGV
  +1.57E+05  +3.76E+05  +1.40E+05  +7.861E+02  +6.597E+03  +1.120E+03  -7.127E+01  -1.287E+03  -1.901E+02  +6.085E+03
  +1.59E+05  +3.40E+05  +1.36E+05  +7.861E+02  +6.597E+03  +1.120E+03  -7.127E+01  -1.287E+03  -1.901E+02  +6.085E+03
  +1.84E+05  +3.60E+05  +1.41E+05  +7.861E+02  +6.597E+03  +1.120E+03  -7.127E+01  -1.287E+03  -1.901E+02  +6.085E+03
  +1.84E+05  +3.70E+05  +1.19E+05  +7.861E+02  +6.597E+03  +1.120E+03  -7.127E+01  -1.287E+03  -1.901E+02  +6.085E+03

element # = 830     type =4-n tetrahedron
 XX         YY         ZZ         SIGXX       SIGYY       SIGZZ       TAUXY       TAUYZ       TAUZX       SIGV
  +7.81E+04  +3.86E+05  +4.12E+04  +3.705E+02  -5.164E+03  +7.770E+02  -1.833E+02  -3.907E+02  -3.815E+02  +5.834E+03
  +1.11E+05  +3.60E+05  +4.89E+04  +3.705E+02  -5.164E+03  +7.770E+02  -1.833E+02  -3.907E+02  -3.815E+02  +5.834E+03
  +1.11E+05  +3.88E+05  +5.24E+04  +3.705E+02  -5.164E+03  +7.770E+02  -1.833E+02  -3.907E+02  -3.815E+02  +5.834E+03
  +1.00E+05  +3.79E+05  +2.28E+04  +3.705E+02  -5.164E+03  +7.770E+02  -1.833E+02  -3.907E+02  -3.815E+02  +5.834E+03

element # = 831     type =4-n tetrahedron
 XX         YY         ZZ         SIGXX       SIGYY       SIGZZ       TAUXY       TAUYZ       TAUZX       SIGV
  +5.72E+04  +2.78E+05  +2.78E+04  -8.023E+02  -1.650E+04  -2.775E+02  +2.201E+02  -1.426E+03  +1.141E+03  +1.628E+04
  +5.70E+04  +2.73E+05  +6.55E+03  -8.023E+02  -1.650E+04  -2.775E+02  +2.201E+02  -1.426E+03  +1.141E+03  +1.628E+04
  +7.94E+04  +2.83E+05  +6.55E+03  -8.023E+02  -1.650E+04  -2.775E+02  +2.201E+02  -1.426E+03  +1.141E+03  +1.628E+04
  +5.70E+04  +2.94E+05  +6.55E+03  -8.023E+02  -1.650E+04  -2.775E+02  +2.201E+02  -1.426E+03  +1.141E+03  +1.628E+04

element # = 832     type =4-n tetrahedron
 XX         YY         ZZ         SIGXX       SIGYY       SIGZZ       TAUXY       TAUYZ       TAUZX       SIGV
  +8.79E+03  +8.11E+05  +1.21E+05  +9.839E+01  +7.211E+02  -2.318E+02  -2.457E+01  -6.831E+02  +4.244E+01  +1.452E+03
  +3.72E+04  +8.10E+05  +1.43E+05  +9.839E+01  +7.211E+02  -2.318E+02  -2.457E+01  -6.831E+02  +4.244E+01  +1.452E+03
  +8.79E+03  +8.00E+05  +1.43E+05  +9.839E+01  +7.211E+02  -2.318E+02  -2.457E+01  -6.831E+02  +4.244E+01  +1.452E+03
  +8.79E+03  +8.22E+05  +1.43E+05  +9.839E+01  +7.211E+02  -2.318E+02  -2.457E+01  -6.831E+02  +4.244E+01  +1.452E+03

element # = 833     type =4-n tetrahedron
 XX         YY         ZZ         SIGXX       SIGYY       SIGZZ       TAUXY       TAUYZ       TAUZX       SIGV
  +1.83E+05  +6.75E+05  +9.90E+04  -9.864E+00  -8.749E+00  -2.371E+02  -6.814E+01  -1.287E+03  +2.300E+01  +2.244E+03
  +1.55E+05  +6.79E+05  +1.15E+05  -9.864E+00  -8.749E+00  -2.371E+02  -6.814E+01  -1.287E+03  +2.300E+01  +2.244E+03
  +1.58E+05  +6.76E+05  +7.95E+04  -9.864E+00  -8.749E+00  -2.371E+02  -6.814E+01  -1.287E+03  +2.300E+01  +2.244E+03
  +1.83E+05  +6.97E+05  +9.90E+04  -9.864E+00  -8.749E+00  -2.371E+02  -6.814E+01  -1.287E+03  +2.300E+01  +2.244E+03

element # = 834     type =4-n tetrahedron
 XX         YY         ZZ         SIGXX       SIGYY       SIGZZ       TAUXY       TAUYZ       TAUZX       SIGV
  +3.78E+04  +9.64E+05  +1.82E+05  -2.156E+01  +1.752E+01  -4.336E+02  +1.067E+01  -2.891E+01  +1.956E+00  +4.362E+02
  +4.21E+04  +9.56E+05  +1.96E+05  -2.156E+01  +1.752E+01  -4.336E+02  +1.067E+01  -2.891E+01  +1.956E+00  +4.362E+02
  +1.87E+04  +9.59E+05  +1.96E+05  -2.156E+01  +1.752E+01  -4.336E+02  +1.067E+01  -2.891E+01  +1.956E+00  +4.362E+02
  +3.66E+04  +9.81E+05  +1.96E+05  -2.156E+01  +1.752E+01  -4.336E+02  +1.067E+01  -2.891E+01  +1.956E+00  +4.362E+02

element # = 835     type =4-n tetrahedron
 XX         YY         ZZ         SIGXX       SIGYY       SIGZZ       TAUXY       TAUYZ       TAUZX       SIGV
  +1.17E+04  +2.94E+05  +1.30E+05  +1.013E+03  +7.168E+03  -4.887E+02  -2.738E+02  -2.419E+03  +1.311E+02  +8.198E+03
  +3.08E+04  +2.87E+05  +1.50E+05  +1.013E+03  +7.168E+03  -4.887E+02  -2.738E+02  -2.419E+03  +1.311E+02  +8.198E+03
  +1.17E+04  +3.03E+05  +1.48E+05  +1.013E+03  +7.168E+03  -4.887E+02  -2.738E+02  -2.419E+03  +1.311E+02  +8.198E+03
  +3.05E+04  +3.01E+05  +1.26E+05  +1.013E+03  +7.168E+03  -4.887E+02  -2.738E+02  -2.419E+03  +1.311E+02  +8.198E+03

element # = 836     type =4-n tetrahedron
 XX         YY         ZZ         SIGXX       SIGYY       SIGZZ       TAUXY       TAUYZ       TAUZX       SIGV
  +1.33E+05  +4.04E+05  +9.13E+03  -8.144E+02  -1.191E+04  -1.338E+03  +2.942E+02  -1.297E+03  +1.007E+02  +1.109E+04
  +1.10E+05  +4.15E+05  +9.13E+03  -8.144E+02  -1.191E+04  -1.338E+03  +2.942E+02  -1.297E+03  +1.007E+02  +1.109E+04
  +1.22E+05  +4.01E+05  +3.87E+04  -8.144E+02  -1.191E+04  -1.338E+03  +2.942E+02  -1.297E+03  +1.007E+02  +1.109E+04
  +1.10E+05  +3.93E+05  +9.13E+03  -8.144E+02  -1.191E+04  -1.338E+03  +2.942E+02  -1.297E+03  +1.007E+02  +1.109E+04

element # = 837     type =4-n tetrahedron
 XX         YY         ZZ         SIGXX       SIGYY       SIGZZ       TAUXY       TAUYZ       TAUZX       SIGV
  +1.71E+05  +9.13E+05  +9.01E+04  -3.227E+01  -1.981E+02  -2.310E+02  -1.859E+01  -2.533E+02  +1.741E+01  +4.779E+02
  +1.43E+05  +8.84E+05  +7.32E+04  -3.227E+01  -1.981E+02  -2.310E+02  -1.859E+01  -2.533E+02  +1.741E+01  +4.779E+02
  +1.43E+05  +9.28E+05  +6.83E+04  -3.227E+01  -1.981E+02  -2.310E+02  -1.859E+01  -2.533E+02  +1.741E+01  +4.779E+02
  +1.33E+05  +9.26E+05  +9.69E+04  -3.227E+01  -1.981E+02  -2.310E+02  -1.859E+01  -2.533E+02  +1.741E+01  +4.779E+02

element # = 838     type =4-n tetrahedron
 XX         YY         ZZ         SIGXX       SIGYY       SIGZZ       TAUXY       TAUYZ       TAUZX       SIGV
  +1.46E+05  +6.92E+05  +1.11E+05  -3.218E+02  -9.991E+02  -6.039E+02  +9.037E+01  -1.314E+03  +7.752E+01  +2.360E+03
  +1.43E+05  +7.29E+05  +8.09E+04  -3.218E+02  -9.991E+02  -6.039E+02  +9.037E+01  -1.314E+03  +7.752E+01  +2.360E+03
  +1.48E+05  +6.89E+05  +7.52E+04  -3.218E+02  -9.991E+02  -6.039E+02  +9.037E+01  -1.314E+03  +7.752E+01  +2.360E+03
  +1.74E+05  +7.09E+05  +9.47E+04  -3.218E+02  -9.991E+02  -6.039E+02  +9.037E+01  -1.314E+03  +7.752E+01  +2.360E+03

element # = 839     type =4-n tetrahedron
 XX         YY         ZZ         SIGXX       SIGYY       SIGZZ       TAUXY       TAUYZ       TAUZX       SIGV
  +1.02E+05  +7.03E+05  +1.02E+05  +8.780E+01  +1.088E+03  -1.182E+02  -5.515E+01  -1.084E+03  -1.208E+02  +2.197E+03
  +1.18E+05  +7.29E+05  +1.32E+05  +8.780E+01  +1.088E+03  -1.182E+02  -5.515E+01  -1.084E+03  -1.208E+02  +2.197E+03
  +1.22E+05  +6.95E+05  +1.30E+05  +8.780E+01  +1.088E+03  -1.182E+02  -5.515E+01  -1.084E+03  -1.208E+02  +2.197E+03
  +9.85E+04  +7.14E+05  +1.34E+05  +8.780E+01  +1.088E+03  -1.182E+02  -5.515E+01  -1.084E+03  -1.208E+02  +2.197E+03

element # = 840     type =4-n tetrahedron
 XX         YY         ZZ         SIGXX       SIGYY       SIGZZ       TAUXY       TAUYZ       TAUZX       SIGV
  +4.11E+04  +7.41E+05  +1.13E+05  -6.731E+01  +3.725E+02  -5.974E+02  -2.268E+01  -7.187E+02  -1.190E+02  +1.517E+03
  +2.10E+04  +7.19E+05  +1.03E+05  -6.731E+01  +3.725E+02  -5.974E+02  -2.268E+01  -7.187E+02  -1.190E+02  +1.517E+03
  +4.34E+04  +7.04E+05  +1.08E+05  -6.731E+01  +3.725E+02  -5.974E+02  -2.268E+01  -7.187E+02  -1.190E+02  +1.517E+03
  +4.62E+04  +7.28E+05  +9.52E+04  -6.731E+01  +3.725E+02  -5.974E+02  -2.268E+01  -7.187E+02  -1.190E+02  +1.517E+03

element # = 841     type =4-n tetrahedron
 XX         YY         ZZ         SIGXX       SIGYY       SIGZZ       TAUXY       TAUYZ       TAUZX       SIGV
  +1.18E+05  +5.34E+05  +1.60E+04  +4.690E+02  -2.386E+03  +3.331E+02  -4.274E+02  -1.257E+03  +1.515E+02  +3.624E+03
  +1.35E+05  +5.61E+05  +3.95E+04  +4.690E+02  -2.386E+03  +3.331E+02  -4.274E+02  -1.257E+03  +1.515E+02  +3.624E+03
  +1.40E+05  +5.45E+05  +1.60E+04  +4.690E+02  -2.386E+03  +3.331E+02  -4.274E+02  -1.257E+03  +1.515E+02  +3.624E+03
  +1.35E+05  +5.29E+05  +4.44E+04  +4.690E+02  -2.386E+03  +3.331E+02  -4.274E+02  -1.257E+03  +1.515E+02  +3.624E+03

element # = 842     type =4-n tetrahedron
 XX         YY         ZZ         SIGXX       SIGYY       SIGZZ       TAUXY       TAUYZ       TAUZX       SIGV
  +6.60E+04  +6.18E+05  +8.62E+04  -5.028E+02  -8.078E+02  -7.060E+01  +7.189E+01  -1.033E+03  +1.824E+02  +1.931E+03
  +8.16E+04  +6.10E+05  +1.09E+05  -5.028E+02  -8.078E+02  -7.060E+01  +7.189E+01  -1.033E+03  +1.824E+02  +1.931E+03
  +5.47E+04  +5.92E+05  +9.48E+04  -5.028E+02  -8.078E+02  -7.060E+01  +7.189E+01  -1.033E+03  +1.824E+02  +1.931E+03
  +5.25E+04  +6.12E+05  +1.10E+05  -5.028E+02  -8.078E+02  -7.060E+01  +7.189E+01  -1.033E+03  +1.824E+02  +1.931E+03

element # = 843     type =4-n tetrahedron
 XX         YY         ZZ         SIGXX       SIGYY       SIGZZ       TAUXY       TAUYZ       TAUZX       SIGV
  +1.86E+05  +4.33E+04  +1.44E+04  +6.201E+02  -1.689E+04  +1.129E+02  +1.959E+03  -1.119E+03  -4.416E+02  +1.771E+04
  +1.63E+05  +2.20E+04  +3.75E+04  +6.201E+02  -1.689E+04  +1.129E+02  +1.959E+03  -1.119E+03  -4.416E+02  +1.771E+04
  +1.62E+05  +4.70E+04  +1.44E+04  +6.201E+02  -1.689E+04  +1.129E+02  +1.959E+03  -1.119E+03  -4.416E+02  +1.771E+04
  +1.86E+05  +4.70E+04  +3.78E+04  +6.201E+02  -1.689E+04  +1.129E+02  +1.959E+03  -1.119E+03  -4.416E+02  +1.771E+04

element # = 844     type =4-n tetrahedron
 XX         YY         ZZ         SIGXX       SIGYY       SIGZZ       TAUXY       TAUYZ       TAUZX       SIGV
  +1.19E+05  +2.40E+05  +7.93E+03  -5.653E+02  -1.904E+04  -1.502E+03  +8.005E+02  -3.693E+01  -1.187E+03  +1.819E+04
  +1.37E+05  +2.50E+05  +3.36E+04  -5.653E+02  -1.904E+04  -1.502E+03  +8.005E+02  -3.693E+01  -1.187E+03  +1.819E+04
  +1.42E+05  +2.51E+05  +7.93E+03  -5.653E+02  -1.904E+04  -1.502E+03  +8.005E+02  -3.693E+01  -1.187E+03  +1.819E+04
  +1.42E+05  +2.29E+05  +7.93E+03  -5.653E+02  -1.904E+04  -1.502E+03  +8.005E+02  -3.693E+01  -1.187E+03  +1.819E+04

element # = 845     type =4-n tetrahedron
 XX         YY         ZZ         SIGXX       SIGYY       SIGZZ       TAUXY       TAUYZ       TAUZX       SIGV
  +5.53E+03  +9.93E+05  +1.77E+05  -1.364E+01  +3.197E+01  -4.796E+02  -6.808E+00  -3.367E+01  -7.921E+00  +4.942E+02
  +5.53E+03  +9.72E+05  +1.94E+05  -1.364E+01  +3.197E+01  -4.796E+02  -6.808E+00  -3.367E+01  -7.921E+00  +4.942E+02
  +5.53E+03  +9.93E+05  +1.94E+05  -1.364E+01  +3.197E+01  -4.796E+02  -6.808E+00  -3.367E+01  -7.921E+00  +4.942E+02
  +2.34E+04  +9.93E+05  +1.94E+05  -1.364E+01  +3.197E+01  -4.796E+02  -6.808E+00  -3.367E+01  -7.921E+00  +4.942E+02

element # = 846     type =4-n tetrahedron
 XX         YY         ZZ         SIGXX       SIGYY       SIGZZ       TAUXY       TAUYZ       TAUZX       SIGV
  +1.05E+05  +6.36E+04  +3.38E+04  -2.467E+03  -2.327E+04  -1.759E+02  +6.134E+02  -1.175E+03  +3.408E+02  +2.217E+04
  +1.32E+05  +6.45E+04  +1.45E+04  -2.467E+03  -2.327E+04  -1.759E+02  +6.134E+02  -1.175E+03  +3.408E+02  +2.217E+04
  +1.30E+05  +7.93E+04  +4.21E+04  -2.467E+03  -2.327E+04  -1.759E+02  +6.134E+02  -1.175E+03  +3.408E+02  +2.217E+04
  +1.11E+05  +7.87E+04  +1.45E+04  -2.467E+03  -2.327E+04  -1.759E+02  +6.134E+02  -1.175E+03  +3.408E+02  +2.217E+04

element # = 847     type =4-n tetrahedron
 XX         YY         ZZ         SIGXX       SIGYY       SIGZZ       TAUXY       TAUYZ       TAUZX       SIGV
  +1.72E+04  +9.01E+05  +1.07E+04  +1.845E+01  -1.847E+02  +4.466E+01  -1.356E+01  -1.440E+02  -1.057E+01  +3.322E+02
  +3.20E+04  +9.09E+05  +2.65E+04  +1.845E+01  -1.847E+02  +4.466E+01  -1.356E+01  -1.440E+02  -1.057E+01  +3.322E+02
  +3.98E+04  +8.92E+05  +1.07E+04  +1.845E+01  -1.847E+02  +4.466E+01  -1.356E+01  -1.440E+02  -1.057E+01  +3.322E+02
  +3.54E+04  +8.86E+05  +2.95E+04  +1.845E+01  -1.847E+02  +4.466E+01  -1.356E+01  -1.440E+02  -1.057E+01  +3.322E+02

element # = 848     type =4-n tetrahedron
 XX         YY         ZZ         SIGXX       SIGYY       SIGZZ       TAUXY       TAUYZ       TAUZX       SIGV
  +1.80E+05  +3.56E+04  +7.14E+03  -6.162E+03  -3.186E+04  -1.068E+04  +3.682E+03  -6.667E+03  +1.814E+03  +2.736E+04
  +1.57E+05  +1.43E+04  +3.02E+04  -6.162E+03  -3.186E+04  -1.068E+04  +3.682E+03  -6.667E+03  +1.814E+03  +2.736E+04
  +1.62E+05  +1.43E+04  +7.14E+03  -6.162E+03  -3.186E+04  -1.068E+04  +3.682E+03  -6.667E+03  +1.814E+03  +2.736E+04
  +1.57E+05  +3.93E+04  +7.14E+03  -6.162E+03  -3.186E+04  -1.068E+04  +3.682E+03  -6.667E+03  +1.814E+03  +2.736E+04

element # = 849     type =4-n tetrahedron
 XX         YY         ZZ         SIGXX       SIGYY       SIGZZ       TAUXY       TAUYZ       TAUZX       SIGV
  +7.86E+04  +2.85E+05  +1.64E+05  +1.474E+02  +1.473E+04  -1.133E+03  +2.126E+02  -1.427E+03  -5.334E+02  +1.550E+04
  +6.13E+04  +2.97E+05  +1.88E+05  +1.474E+02  +1.473E+04  -1.133E+03  +2.126E+02  -1.427E+03  -5.334E+02  +1.550E+04
  +8.36E+04  +2.87E+05  +1.88E+05  +1.474E+02  +1.473E+04  -1.133E+03  +2.126E+02  -1.427E+03  -5.334E+02  +1.550E+04
  +5.80E+04  +2.82E+05  +1.71E+05  +1.474E+02  +1.473E+04  -1.133E+03  +2.126E+02  -1.427E+03  -5.334E+02  +1.550E+04

element # = 850     type =4-n tetrahedron
 XX         YY         ZZ         SIGXX       SIGYY       SIGZZ       TAUXY       TAUYZ       TAUZX       SIGV
  +3.64E+04  +4.71E+05  +6.49E+04  -1.183E+03  -5.731E+03  -1.147E+03  -4.480E+01  -1.786E+03  +6.428E+02  +5.627E+03
  +8.59E+03  +4.62E+05  +5.90E+04  -1.183E+03  -5.731E+03  -1.147E+03  -4.480E+01  -1.786E+03  +6.428E+02  +5.627E+03
  +8.59E+03  +4.84E+05  +5.90E+04  -1.183E+03  -5.731E+03  -1.147E+03  -4.480E+01  -1.786E+03  +6.428E+02  +5.627E+03
  +8.59E+03  +4.73E+05  +8.16E+04  -1.183E+03  -5.731E+03  -1.147E+03  -4.480E+01  -1.786E+03  +6.428E+02  +5.627E+03

element # = 851     type =4-n tetrahedron
 XX         YY         ZZ         SIGXX       SIGYY       SIGZZ       TAUXY       TAUYZ       TAUZX       SIGV
  +2.98E+04  +6.53E+05  +2.37E+04  -3.232E+02  -4.183E+03  -4.898E+02  +1.271E+02  -3.725E+02  -5.292E+01  +3.842E+03
  +1.23E+04  +6.35E+05  +5.60E+03  -3.232E+02  -4.183E+03  -4.898E+02  +1.271E+02  -3.725E+02  -5.292E+01  +3.842E+03
  +3.47E+04  +6.45E+05  +5.60E+03  -3.232E+02  -4.183E+03  -4.898E+02  +1.271E+02  -3.725E+02  -5.292E+01  +3.842E+03
  +1.23E+04  +6.56E+05  +5.60E+03  -3.232E+02  -4.183E+03  -4.898E+02  +1.271E+02  -3.725E+02  -5.292E+01  +3.842E+03

element # = 852     type =4-n tetrahedron
 XX         YY         ZZ         SIGXX       SIGYY       SIGZZ       TAUXY       TAUYZ       TAUZX       SIGV
  +5.59E+04  +5.82E+05  +1.92E+05  +2.670E+02  +5.509E+03  -5.317E+02  -7.849E+01  -6.197E+02  +4.606E+02  +5.841E+03
  +7.83E+04  +5.71E+05  +1.92E+05  +2.670E+02  +5.509E+03  -5.317E+02  -7.849E+01  -6.197E+02  +4.606E+02  +5.841E+03
  +5.28E+04  +5.70E+05  +1.68E+05  +2.670E+02  +5.509E+03  -5.317E+02  -7.849E+01  -6.197E+02  +4.606E+02  +5.841E+03
  +5.59E+04  +5.61E+05  +1.92E+05  +2.670E+02  +5.509E+03  -5.317E+02  -7.849E+01  -6.197E+02  +4.606E+02  +5.841E+03

element # = 853     type =4-n tetrahedron
 XX         YY         ZZ         SIGXX       SIGYY       SIGZZ       TAUXY       TAUYZ       TAUZX       SIGV
  +1.78E+05  +5.86E+05  +9.62E+04  +3.839E+02  +5.835E+02  +4.788E+02  -1.235E+02  -1.532E+03  +2.046E+01  +2.668E+03
  +1.51E+05  +5.92E+05  +7.49E+04  +3.839E+02  +5.835E+02  +4.788E+02  -1.235E+02  -1.532E+03  +2.046E+01  +2.668E+03
  +1.78E+05  +6.07E+05  +9.62E+04  +3.839E+02  +5.835E+02  +4.788E+02  -1.235E+02  -1.532E+03  +2.046E+01  +2.668E+03
  +1.35E+05  +6.04E+05  +1.05E+05  +3.839E+02  +5.835E+02  +4.788E+02  -1.235E+02  -1.532E+03  +2.046E+01  +2.668E+03

element # = 854     type =4-n tetrahedron
 XX         YY         ZZ         SIGXX       SIGYY       SIGZZ       TAUXY       TAUYZ       TAUZX       SIGV
  +1.07E+05  +2.25E+05  +4.31E+04  +6.350E+02  -1.190E+04  +5.856E+02  +6.677E+02  -1.544E+03  -1.618E+02  +1.285E+04
  +1.33E+05  +2.23E+05  +1.62E+04  +6.350E+02  -1.190E+04  +5.856E+02  +6.677E+02  -1.544E+03  -1.618E+02  +1.285E+04
  +1.29E+05  +2.44E+05  +4.19E+04  +6.350E+02  -1.190E+04  +5.856E+02  +6.677E+02  -1.544E+03  -1.618E+02  +1.285E+04
  +1.11E+05  +2.34E+05  +1.62E+04  +6.350E+02  -1.190E+04  +5.856E+02  +6.677E+02  -1.544E+03  -1.618E+02  +1.285E+04

element # = 855     type =4-n tetrahedron
 XX         YY         ZZ         SIGXX       SIGYY       SIGZZ       TAUXY       TAUYZ       TAUZX       SIGV
  +1.92E+05  +6.88E+05  +6.47E+04  +3.614E+02  +1.856E+02  +3.959E+01  -2.164E+02  -1.092E+03  -1.243E+02  +1.961E+03
  +1.92E+05  +6.77E+05  +8.71E+04  +3.614E+02  +1.856E+02  +3.959E+01  -2.164E+02  -1.092E+03  -1.243E+02  +1.961E+03
  +1.67E+05  +6.78E+05  +6.76E+04  +3.614E+02  +1.856E+02  +3.959E+01  -2.164E+02  -1.092E+03  -1.243E+02  +1.961E+03
  +1.92E+05  +6.99E+05  +8.71E+04  +3.614E+02  +1.856E+02  +3.959E+01  -2.164E+02  -1.092E+03  -1.243E+02  +1.961E+03

element # = 856     type =4-n tetrahedron
 XX         YY         ZZ         SIGXX       SIGYY       SIGZZ       TAUXY       TAUYZ       TAUZX       SIGV
  +5.65E+04  +9.72E+05  +1.70E+05  -3.174E+01  +4.568E+01  -4.817E+02  -8.334E-01  -2.671E+01  +3.618E+00  +4.955E+02
  +8.04E+04  +9.69E+05  +1.70E+05  -3.174E+01  +4.568E+01  -4.817E+02  -8.334E-01  -2.671E+01  +3.618E+00  +4.955E+02
  +7.32E+04  +9.89E+05  +1.84E+05  -3.174E+01  +4.568E+01  -4.817E+02  -8.334E-01  -2.671E+01  +3.618E+00  +4.955E+02
  +6.05E+04  +9.89E+05  +1.61E+05  -3.174E+01  +4.568E+01  -4.817E+02  -8.334E-01  -2.671E+01  +3.618E+00  +4.955E+02

element # = 857     type =4-n tetrahedron
 XX         YY         ZZ         SIGXX       SIGYY       SIGZZ       TAUXY       TAUYZ       TAUZX       SIGV
  +1.49E+05  +1.95E+05  +5.33E+04  +7.544E+02  -6.749E+03  +2.427E+02  +7.194E+02  -1.975E+03  +1.042E+03  +8.321E+03
  +1.49E+05  +2.35E+05  +4.96E+04  +7.544E+02  -6.749E+03  +2.427E+02  +7.194E+02  -1.975E+03  +1.042E+03  +8.321E+03
  +1.54E+05  +2.14E+05  +2.39E+04  +7.544E+02  -6.749E+03  +2.427E+02  +7.194E+02  -1.975E+03  +1.042E+03  +8.321E+03
  +1.76E+05  +2.14E+05  +4.63E+04  +7.544E+02  -6.749E+03  +2.427E+02  +7.194E+02  -1.975E+03  +1.042E+03  +8.321E+03

element # = 858     type =4-n tetrahedron
 XX         YY         ZZ         SIGXX       SIGYY       SIGZZ       TAUXY       TAUYZ       TAUZX       SIGV
  +1.24E+04  +5.34E+05  +1.95E+05  +3.050E+02  +6.198E+03  +2.318E+02  -1.788E+02  -9.300E+02  +1.566E+02  +6.159E+03
  +1.24E+04  +5.55E+05  +1.95E+05  +3.050E+02  +6.198E+03  +2.318E+02  -1.788E+02  -9.300E+02  +1.566E+02  +6.159E+03
  +3.02E+04  +5.35E+05  +1.80E+05  +3.050E+02  +6.198E+03  +2.318E+02  -1.788E+02  -9.300E+02  +1.566E+02  +6.159E+03
  +3.48E+04  +5.45E+05  +1.95E+05  +3.050E+02  +6.198E+03  +2.318E+02  -1.788E+02  -9.300E+02  +1.566E+02  +6.159E+03

element # = 859     type =4-n tetrahedron
 XX         YY         ZZ         SIGXX       SIGYY       SIGZZ       TAUXY       TAUYZ       TAUZX       SIGV
  +1.92E+05  +2.78E+05  +1.42E+05  +4.539E+02  +8.433E+03  +4.435E+02  -9.893E+01  -2.138E+03  -8.166E+02  +8.916E+03
  +1.68E+05  +3.02E+05  +1.37E+05  +4.539E+02  +8.433E+03  +4.435E+02  -9.893E+01  -2.138E+03  -8.166E+02  +8.916E+03
  +1.92E+05  +2.89E+05  +1.19E+05  +4.539E+02  +8.433E+03  +4.435E+02  -9.893E+01  -2.138E+03  -8.166E+02  +8.916E+03
  +1.92E+05  +3.00E+05  +1.42E+05  +4.539E+02  +8.433E+03  +4.435E+02  -9.893E+01  -2.138E+03  -8.166E+02  +8.916E+03

element # = 860     type =4-n tetrahedron
 XX         YY         ZZ         SIGXX       SIGYY       SIGZZ       TAUXY       TAUYZ       TAUZX       SIGV
  +1.02E+05  +7.71E+05  +8.73E+04  +1.528E+02  +1.565E+02  -1.661E+02  +1.316E+02  -6.393E+02  +5.340E+01  +1.179E+03
  +7.20E+04  +7.93E+05  +1.23E+05  +1.528E+02  +1.565E+02  -1.661E+02  +1.316E+02  -6.393E+02  +5.340E+01  +1.179E+03
  +6.37E+04  +7.73E+05  +1.12E+05  +1.528E+02  +1.565E+02  -1.661E+02  +1.316E+02  -6.393E+02  +5.340E+01  +1.179E+03
  +7.69E+04  +7.86E+05  +8.58E+04  +1.528E+02  +1.565E+02  -1.661E+02  +1.316E+02  -6.393E+02  +5.340E+01  +1.179E+03

element # = 861     type =4-n tetrahedron
 XX         YY         ZZ         SIGXX       SIGYY       SIGZZ       TAUXY       TAUYZ       TAUZX       SIGV
  +1.93E+05  +7.49E+05  +6.92E+03  -2.090E+02  -2.025E+03  -1.850E+02  -1.200E+02  -4.430E+02  -1.252E+02  +2.005E+03
  +1.93E+05  +7.39E+05  +2.93E+04  -2.090E+02  -2.025E+03  -1.850E+02  -1.200E+02  -4.430E+02  -1.252E+02  +2.005E+03
  +1.93E+05  +7.28E+05  +6.92E+03  -2.090E+02  -2.025E+03  -1.850E+02  -1.200E+02  -4.430E+02  -1.252E+02  +2.005E+03
  +1.71E+05  +7.39E+05  +6.92E+03  -2.090E+02  -2.025E+03  -1.850E+02  -1.200E+02  -4.430E+02  -1.252E+02  +2.005E+03

element # = 862     type =4-n tetrahedron
 XX         YY         ZZ         SIGXX       SIGYY       SIGZZ       TAUXY       TAUYZ       TAUZX       SIGV
  +5.74E+04  +4.09E+05  +2.40E+04  -1.763E+02  -1.018E+04  +1.363E+02  +1.682E+02  -1.661E+03  +6.824E+02  +1.063E+04
  +5.70E+04  +4.35E+05  +5.67E+03  -1.763E+02  -1.018E+04  +1.363E+02  +1.682E+02  -1.661E+03  +6.824E+02  +1.063E+04
  +5.70E+04  +4.13E+05  +5.67E+03  -1.763E+02  -1.018E+04  +1.363E+02  +1.682E+02  -1.661E+03  +6.824E+02  +1.063E+04
  +7.94E+04  +4.24E+05  +5.67E+03  -1.763E+02  -1.018E+04  +1.363E+02  +1.682E+02  -1.661E+03  +6.824E+02  +1.063E+04

element # = 863     type =4-n tetrahedron
 XX         YY         ZZ         SIGXX       SIGYY       SIGZZ       TAUXY       TAUYZ       TAUZX       SIGV
  +1.40E+05  +7.73E+05  +9.54E+03  -4.757E+01  -1.739E+03  -1.495E+02  -1.220E+02  -4.780E+02  +4.573E+01  +1.854E+03
  +1.18E+05  +7.63E+05  +9.54E+03  -4.757E+01  -1.739E+03  -1.495E+02  -1.220E+02  -4.780E+02  +4.573E+01  +1.854E+03
  +1.32E+05  +7.60E+05  +4.04E+04  -4.757E+01  -1.739E+03  -1.495E+02  -1.220E+02  -4.780E+02  +4.573E+01  +1.854E+03
  +1.40E+05  +7.52E+05  +9.54E+03  -4.757E+01  -1.739E+03  -1.495E+02  -1.220E+02  -4.780E+02  +4.573E+01  +1.854E+03

element # = 864     type =4-n tetrahedron
 XX         YY         ZZ         SIGXX       SIGYY       SIGZZ       TAUXY       TAUYZ       TAUZX       SIGV
  +8.68E+04  +3.38E+05  +1.46E+05  -2.634E+02  +6.991E+03  -4.430E+02  -9.138E+01  -2.868E+02  -6.641E+02  +7.454E+03
  +8.98E+04  +3.29E+05  +1.77E+05  -2.634E+02  +6.991E+03  -4.430E+02  -9.138E+01  -2.868E+02  -6.641E+02  +7.454E+03
  +8.47E+04  +3.06E+05  +1.54E+05  -2.634E+02  +6.991E+03  -4.430E+02  -9.138E+01  -2.868E+02  -6.641E+02  +7.454E+03
  +6.46E+04  +3.27E+05  +1.58E+05  -2.634E+02  +6.991E+03  -4.430E+02  -9.138E+01  -2.868E+02  -6.641E+02  +7.454E+03

element # = 865     type =4-n tetrahedron
 XX         YY         ZZ         SIGXX       SIGYY       SIGZZ       TAUXY       TAUYZ       TAUZX       SIGV
  +6.21E+04  +3.50E+05  +1.84E+05  +9.243E+02  +1.165E+04  -8.107E+01  -1.260E+02  -1.424E+03  -5.224E+01  +1.153E+04
  +8.44E+04  +3.39E+05  +1.84E+05  +9.243E+02  +1.165E+04  -8.107E+01  -1.260E+02  -1.424E+03  -5.224E+01  +1.153E+04
  +8.15E+04  +3.48E+05  +1.53E+05  +9.243E+02  +1.165E+04  -8.107E+01  -1.260E+02  -1.424E+03  -5.224E+01  +1.153E+04
  +5.92E+04  +3.38E+05  +1.66E+05  +9.243E+02  +1.165E+04  -8.107E+01  -1.260E+02  -1.424E+03  -5.224E+01  +1.153E+04

element # = 866     type =4-n tetrahedron
 XX         YY         ZZ         SIGXX       SIGYY       SIGZZ       TAUXY       TAUYZ       TAUZX       SIGV
  +1.45E+05  +7.34E+05  +5.51E+04  +2.829E+01  -1.157E+03  -6.883E+01  +1.247E+01  -2.667E+02  +1.142E+02  +1.246E+03
  +1.76E+05  +7.04E+05  +4.66E+04  +2.829E+01  -1.157E+03  -6.883E+01  +1.247E+01  -2.667E+02  +1.142E+02  +1.246E+03
  +1.53E+05  +7.25E+05  +2.42E+04  +2.829E+01  -1.157E+03  -6.883E+01  +1.247E+01  -2.667E+02  +1.142E+02  +1.246E+03
  +1.50E+05  +6.94E+05  +4.95E+04  +2.829E+01  -1.157E+03  -6.883E+01  +1.247E+01  -2.667E+02  +1.142E+02  +1.246E+03

element # = 867     type =4-n tetrahedron
 XX         YY         ZZ         SIGXX       SIGYY       SIGZZ       TAUXY       TAUYZ       TAUZX       SIGV
  +9.87E+04  +7.97E+05  +1.85E+05  +8.168E+01  +1.366E+03  -3.811E+02  +1.495E+02  -4.188E+02  +2.758E+01  +1.748E+03
  +1.11E+05  +7.70E+05  +1.59E+05  +8.168E+01  +1.366E+03  -3.811E+02  +1.495E+02  -4.188E+02  +2.758E+01  +1.748E+03
  +8.24E+04  +7.95E+05  +1.62E+05  +8.168E+01  +1.366E+03  -3.811E+02  +1.495E+02  -4.188E+02  +2.758E+01  +1.748E+03
  +9.87E+04  +7.75E+05  +1.85E+05  +8.168E+01  +1.366E+03  -3.811E+02  +1.495E+02  -4.188E+02  +2.758E+01  +1.748E+03

element # = 868     type =4-n tetrahedron
 XX         YY         ZZ         SIGXX       SIGYY       SIGZZ       TAUXY       TAUYZ       TAUZX       SIGV
  +1.35E+05  +6.88E+05  +7.79E+03  +8.035E+01  -2.898E+03  +3.638E+01  +1.931E+01  -6.264E+02  +3.077E+01  +3.150E+03
  +1.13E+05  +6.99E+05  +7.79E+03  +8.035E+01  -2.898E+03  +3.638E+01  +1.931E+01  -6.264E+02  +3.077E+01  +3.150E+03
  +1.32E+05  +6.78E+05  +3.30E+04  +8.035E+01  -2.898E+03  +3.638E+01  +1.931E+01  -6.264E+02  +3.077E+01  +3.150E+03
  +1.13E+05  +6.77E+05  +7.79E+03  +8.035E+01  -2.898E+03  +3.638E+01  +1.931E+01  -6.264E+02  +3.077E+01  +3.150E+03

element # = 869     type =4-n tetrahedron
 XX         YY         ZZ         SIGXX       SIGYY       SIGZZ       TAUXY       TAUYZ       TAUZX       SIGV
  +1.42E+05  +6.57E+05  +7.79E+03  -1.752E+01  -4.021E+03  -1.728E+02  -3.541E+01  -5.670E+02  -1.369E+02  +4.056E+03
  +1.42E+05  +6.78E+05  +7.79E+03  -1.752E+01  -4.021E+03  -1.728E+02  -3.541E+01  -5.670E+02  -1.369E+02  +4.056E+03
  +1.39E+05  +6.68E+05  +3.30E+04  -1.752E+01  -4.021E+03  -1.728E+02  -3.541E+01  -5.670E+02  -1.369E+02  +4.056E+03
  +1.20E+05  +6.67E+05  +7.79E+03  -1.752E+01  -4.021E+03  -1.728E+02  -3.541E+01  -5.670E+02  -1.369E+02  +4.056E+03

element # = 870     type =4-n tetrahedron
 XX         YY         ZZ         SIGXX       SIGYY       SIGZZ       TAUXY       TAUYZ       TAUZX       SIGV
  +5.45E+04  +6.85E+05  +1.20E+04  +9.091E+01  -1.840E+03  +6.127E+01  +3.329E+02  -3.011E+02  +1.056E+02  +2.076E+03
  +5.14E+04  +6.91E+05  +3.26E+04  +9.091E+01  -1.840E+03  +6.127E+01  +3.329E+02  -3.011E+02  +1.056E+02  +2.076E+03
  +7.68E+04  +6.74E+05  +1.20E+04  +9.091E+01  -1.840E+03  +6.127E+01  +3.329E+02  -3.011E+02  +1.056E+02  +2.076E+03
  +4.96E+04  +6.71E+05  +3.01E+04  +9.091E+01  -1.840E+03  +6.127E+01  +3.329E+02  -3.011E+02  +1.056E+02  +2.076E+03

element # = 871     type =4-n tetrahedron
 XX         YY         ZZ         SIGXX       SIGYY       SIGZZ       TAUXY       TAUYZ       TAUZX       SIGV
  +1.39E+04  +3.63E+05  +3.01E+04  +8.271E+01  -9.982E+03  +3.115E+02  +5.880E+02  -8.923E+02  -1.240E+01  +1.035E+04
  +3.67E+04  +3.82E+05  +2.98E+04  +8.271E+01  -9.982E+03  +3.115E+02  +5.880E+02  -8.923E+02  -1.240E+01  +1.035E+04
  +1.39E+04  +3.76E+05  +1.14E+04  +8.271E+01  -9.982E+03  +3.115E+02  +5.880E+02  -8.923E+02  -1.240E+01  +1.035E+04
  +3.63E+04  +3.65E+05  +1.14E+04  +8.271E+01  -9.982E+03  +3.115E+02  +5.880E+02  -8.923E+02  -1.240E+01  +1.035E+04

element # = 872     type =4-n tetrahedron
 XX         YY         ZZ         SIGXX       SIGYY       SIGZZ       TAUXY       TAUYZ       TAUZX       SIGV
  +1.91E+05  +5.32E+05  +8.80E+04  +2.136E+02  -3.983E+02  -1.053E+02  -2.905E+02  -1.419E+03  -2.274E+02  +2.594E+03
  +1.91E+05  +5.54E+05  +8.80E+04  +2.136E+02  -3.983E+02  -1.053E+02  -2.905E+02  -1.419E+03  -2.274E+02  +2.594E+03
  +1.64E+05  +5.27E+05  +7.17E+04  +2.136E+02  -3.983E+02  -1.053E+02  -2.905E+02  -1.419E+03  -2.274E+02  +2.594E+03
  +1.91E+05  +5.43E+05  +6.57E+04  +2.136E+02  -3.983E+02  -1.053E+02  -2.905E+02  -1.419E+03  -2.274E+02  +2.594E+03

element # = 873     type =4-n tetrahedron
 XX         YY         ZZ         SIGXX       SIGYY       SIGZZ       TAUXY       TAUYZ       TAUZX       SIGV
  +4.16E+04  +2.59E+05  +1.73E+04  +2.203E+02  -1.109E+04  +3.917E+02  +2.987E+02  +2.280E+02  -7.698E+02  +1.150E+04
  +3.62E+04  +2.46E+05  +3.57E+04  +2.203E+02  -1.109E+04  +3.917E+02  +2.987E+02  +2.280E+02  -7.698E+02  +1.150E+04
  +1.92E+04  +2.58E+05  +3.37E+04  +2.203E+02  -1.109E+04  +3.917E+02  +2.987E+02  +2.280E+02  -7.698E+02  +1.150E+04
  +4.18E+04  +2.64E+05  +3.85E+04  +2.203E+02  -1.109E+04  +3.917E+02  +2.987E+02  +2.280E+02  -7.698E+02  +1.150E+04

element # = 874     type =4-n tetrahedron
 XX         YY         ZZ         SIGXX       SIGYY       SIGZZ       TAUXY       TAUYZ       TAUZX       SIGV
  +7.03E+03  +4.33E+05  +4.15E+04  +6.475E+02  -4.611E+03  +6.811E+02  +4.425E+02  -1.024E+03  +2.713E+02  +5.638E+03
  +2.98E+04  +4.08E+05  +3.74E+04  +6.475E+02  -4.611E+03  +6.811E+02  +4.425E+02  -1.024E+03  +2.713E+02  +5.638E+03
  +7.03E+03  +4.23E+05  +1.90E+04  +6.475E+02  -4.611E+03  +6.811E+02  +4.425E+02  -1.024E+03  +2.713E+02  +5.638E+03
  +7.03E+03  +4.11E+05  +3.99E+04  +6.475E+02  -4.611E+03  +6.811E+02  +4.425E+02  -1.024E+03  +2.713E+02  +5.638E+03

element # = 875     type =4-n tetrahedron
 XX         YY         ZZ         SIGXX       SIGYY       SIGZZ       TAUXY       TAUYZ       TAUZX       SIGV
  +1.06E+05  +4.77E+05  +2.50E+04  +2.913E+02  -3.242E+03  +7.367E+02  +1.333E+02  -1.211E+03  -2.154E+02  +4.341E+03
  +1.25E+05  +4.67E+05  +4.93E+04  +2.913E+02  -3.242E+03  +7.367E+02  +1.333E+02  -1.211E+03  -2.154E+02  +4.341E+03
  +8.89E+04  +4.74E+05  +5.34E+04  +2.913E+02  -3.242E+03  +7.367E+02  +1.333E+02  -1.211E+03  -2.154E+02  +4.341E+03
  +1.23E+05  +4.94E+05  +5.34E+04  +2.913E+02  -3.242E+03  +7.367E+02  +1.333E+02  -1.211E+03  -2.154E+02  +4.341E+03

element # = 876     type =4-n tetrahedron
 XX         YY         ZZ         SIGXX       SIGYY       SIGZZ       TAUXY       TAUYZ       TAUZX       SIGV
  +2.25E+04  +4.45E+05  +4.38E+04  -9.543E+02  -6.764E+03  -5.258E+02  -1.114E+01  -4.036E+01  -4.309E+02  +6.082E+03
  +4.49E+04  +4.46E+05  +2.14E+04  -9.543E+02  -6.764E+03  -5.258E+02  -1.114E+01  -4.036E+01  -4.309E+02  +6.082E+03
  +4.53E+04  +4.21E+05  +3.97E+04  -9.543E+02  -6.764E+03  -5.258E+02  -1.114E+01  -4.036E+01  -4.309E+02  +6.082E+03
  +5.03E+04  +4.54E+05  +4.97E+04  -9.543E+02  -6.764E+03  -5.258E+02  -1.114E+01  -4.036E+01  -4.309E+02  +6.082E+03

element # = 877     type =4-n tetrahedron
 XX         YY         ZZ         SIGXX       SIGYY       SIGZZ       TAUXY       TAUYZ       TAUZX       SIGV
  +1.25E+04  +1.08E+05  +3.36E+04  +5.071E+02  -2.064E+04  -5.928E+02  -4.698E+02  -8.756E+02  +6.096E+01  +2.070E+04
  +3.51E+04  +1.07E+05  +1.12E+04  +5.071E+02  -2.064E+04  -5.928E+02  -4.698E+02  -8.756E+02  +6.096E+01  +2.070E+04
  +1.25E+04  +9.87E+04  +1.12E+04  +5.071E+02  -2.064E+04  -5.928E+02  -4.698E+02  -8.756E+02  +6.096E+01  +2.070E+04
  +3.03E+04  +9.27E+04  +2.49E+04  +5.071E+02  -2.064E+04  -5.928E+02  -4.698E+02  -8.756E+02  +6.096E+01  +2.070E+04

element # = 878     type =4-n tetrahedron
 XX         YY         ZZ         SIGXX       SIGYY       SIGZZ       TAUXY       TAUYZ       TAUZX       SIGV
  +1.13E+05  +8.99E+05  +1.93E+05  +8.923E+00  +4.824E+02  -4.307E+02  +2.462E+01  -1.829E+02  -5.074E+01  +8.576E+02
  +1.13E+05  +8.76E+05  +1.93E+05  +8.923E+00  +4.824E+02  -4.307E+02  +2.462E+01  -1.829E+02  -5.074E+01  +8.576E+02
  +1.35E+05  +8.87E+05  +1.93E+05  +8.923E+00  +4.824E+02  -4.307E+02  +2.462E+01  -1.829E+02  -5.074E+01  +8.576E+02
  +1.32E+05  +8.88E+05  +1.71E+05  +8.923E+00  +4.824E+02  -4.307E+02  +2.462E+01  -1.829E+02  -5.074E+01  +8.576E+02

element # = 879     type =4-n tetrahedron
 XX         YY         ZZ         SIGXX       SIGYY       SIGZZ       TAUXY       TAUYZ       TAUZX       SIGV
  +4.61E+04  +3.68E+04  +6.34E+04  -9.831E+02  -1.292E+04  -2.018E+03  -1.267E+03  -9.361E+02  -4.348E+02  +1.180E+04
  +6.80E+04  +4.24E+04  +4.78E+04  -9.831E+02  -1.292E+04  -2.018E+03  -1.267E+03  -9.361E+02  -4.348E+02  +1.180E+04
  +4.71E+04  +3.52E+04  +4.37E+04  -9.831E+02  -1.292E+04  -2.018E+03  -1.267E+03  -9.361E+02  -4.348E+02  +1.180E+04
  +5.26E+04  +1.83E+04  +5.16E+04  -9.831E+02  -1.292E+04  -2.018E+03  -1.267E+03  -9.361E+02  -4.348E+02  +1.180E+04

element # = 880     type =4-n tetrahedron
 XX         YY         ZZ         SIGXX       SIGYY       SIGZZ       TAUXY       TAUYZ       TAUZX       SIGV
  +9.44E+04  +6.79E+05  +9.40E+04  +3.178E+02  +1.076E+03  +4.406E+02  -5.112E+01  -4.355E+02  -1.213E+02  +1.057E+03
  +9.94E+04  +6.43E+05  +1.15E+05  +3.178E+02  +1.076E+03  +4.406E+02  -5.112E+01  -4.355E+02  -1.213E+02  +1.057E+03
  +7.55E+04  +6.73E+05  +1.11E+05  +3.178E+02  +1.076E+03  +4.406E+02  -5.112E+01  -4.355E+02  -1.213E+02  +1.057E+03
  +1.14E+05  +6.71E+05  +1.22E+05  +3.178E+02  +1.076E+03  +4.406E+02  -5.112E+01  -4.355E+02  -1.213E+02  +1.057E+03

element # = 881     type =4-n tetrahedron
 XX         YY         ZZ         SIGXX       SIGYY       SIGZZ       TAUXY       TAUYZ       TAUZX       SIGV
  +1.18E+04  +3.17E+05  +1.48E+05  -4.993E+02  +5.439E+03  -3.479E+02  -1.043E+02  -2.282E+03  +2.828E+02  +7.091E+03
  +3.06E+04  +3.15E+05  +1.26E+05  -4.993E+02  +5.439E+03  -3.479E+02  -1.043E+02  -2.282E+03  +2.828E+02  +7.091E+03
  +3.14E+04  +3.25E+05  +1.47E+05  -4.993E+02  +5.439E+03  -3.479E+02  -1.043E+02  -2.282E+03  +2.828E+02  +7.091E+03
  +1.18E+04  +3.29E+05  +1.30E+05  -4.993E+02  +5.439E+03  -3.479E+02  -1.043E+02  -2.282E+03  +2.828E+02  +7.091E+03

element # = 882     type =4-n tetrahedron
 XX         YY         ZZ         SIGXX       SIGYY       SIGZZ       TAUXY       TAUYZ       TAUZX       SIGV
  +1.22E+04  +2.44E+05  +1.07E+04  +1.400E+02  -1.475E+04  -5.559E+02  +2.771E+02  -8.314E+02  -2.390E+01  +1.463E+04
  +2.92E+04  +2.41E+05  +2.91E+04  +1.400E+02  -1.475E+04  -5.559E+02  +2.771E+02  -8.314E+02  -2.390E+01  +1.463E+04
  +1.22E+04  +2.54E+05  +2.72E+04  +1.400E+02  -1.475E+04  -5.559E+02  +2.771E+02  -8.314E+02  -2.390E+01  +1.463E+04
  +3.46E+04  +2.54E+05  +1.07E+04  +1.400E+02  -1.475E+04  -5.559E+02  +2.771E+02  -8.314E+02  -2.390E+01  +1.463E+04

element # = 883     type =4-n tetrahedron
 XX         YY         ZZ         SIGXX       SIGYY       SIGZZ       TAUXY       TAUYZ       TAUZX       SIGV
  +4.94E+04  +2.76E+05  +1.46E+05  -3.154E+03  +5.549E+01  -1.257E+03  +8.231E+01  -1.975E+03  +1.107E+03  +4.817E+03
  +4.91E+04  +2.90E+05  +1.22E+05  -3.154E+03  +5.549E+01  -1.257E+03  +8.231E+01  -1.975E+03  +1.107E+03  +4.817E+03
  +5.09E+04  +2.62E+05  +1.19E+05  -3.154E+03  +5.549E+01  -1.257E+03  +8.231E+01  -1.975E+03  +1.107E+03  +4.817E+03
  +7.00E+04  +2.79E+05  +1.39E+05  -3.154E+03  +5.549E+01  -1.257E+03  +8.231E+01  -1.975E+03  +1.107E+03  +4.817E+03

element # = 884     type =4-n tetrahedron
 XX         YY         ZZ         SIGXX       SIGYY       SIGZZ       TAUXY       TAUYZ       TAUZX       SIGV
  +6.27E+04  +4.78E+05  +1.77E+05  -2.885E+02  +8.573E+03  -7.643E+02  -4.298E+02  -6.277E+02  +2.941E+02  +9.218E+03
  +8.06E+04  +4.77E+05  +1.94E+05  -2.885E+02  +8.573E+03  -7.643E+02  -4.298E+02  -6.277E+02  +2.941E+02  +9.218E+03
  +5.83E+04  +4.66E+05  +1.94E+05  -2.885E+02  +8.573E+03  -7.643E+02  -4.298E+02  -6.277E+02  +2.941E+02  +9.218E+03
  +5.83E+04  +4.87E+05  +1.94E+05  -2.885E+02  +8.573E+03  -7.643E+02  -4.298E+02  -6.277E+02  +2.941E+02  +9.218E+03

element # = 885     type =4-n tetrahedron
 XX         YY         ZZ         SIGXX       SIGYY       SIGZZ       TAUXY       TAUYZ       TAUZX       SIGV
  +2.21E+04  +4.77E+05  +1.94E+05  +1.228E+02  +8.572E+03  -1.179E+03  -4.737E+01  -5.329E+02  -4.887E+02  +9.255E+03
  +4.89E+04  +4.78E+05  +1.77E+05  +1.228E+02  +8.572E+03  -1.179E+03  -4.737E+01  -5.329E+02  -4.887E+02  +9.255E+03
  +4.45E+04  +4.66E+05  +1.94E+05  +1.228E+02  +8.572E+03  -1.179E+03  -4.737E+01  -5.329E+02  -4.887E+02  +9.255E+03
  +4.45E+04  +4.87E+05  +1.94E+05  +1.228E+02  +8.572E+03  -1.179E+03  -4.737E+01  -5.329E+02  -4.887E+02  +9.255E+03

element # = 886     type =4-n tetrahedron
 XX         YY         ZZ         SIGXX       SIGYY       SIGZZ       TAUXY       TAUYZ       TAUZX       SIGV
  +2.46E+04  +3.11E+05  +1.09E+05  +7.210E+02  +3.271E+03  +2.709E+02  -1.313E+02  -2.184E+03  +7.844E+02  +4.905E+03
  +5.81E+03  +3.04E+05  +1.13E+05  +7.210E+02  +3.271E+03  +2.709E+02  -1.313E+02  -2.184E+03  +7.844E+02  +4.905E+03
  +5.81E+03  +3.18E+05  +9.57E+04  +7.210E+02  +3.271E+03  +2.709E+02  -1.313E+02  -2.184E+03  +7.844E+02  +4.905E+03
  +5.81E+03  +3.25E+05  +1.14E+05  +7.210E+02  +3.271E+03  +2.709E+02  -1.313E+02  -2.184E+03  +7.844E+02  +4.905E+03

element # = 887     type =4-n tetrahedron
 XX         YY         ZZ         SIGXX       SIGYY       SIGZZ       TAUXY       TAUYZ       TAUZX       SIGV
  +7.75E+04  +3.83E+05  +1.58E+05  -1.398E+03  +3.272E+03  -2.719E+03  +1.174E+01  -8.194E+02  -6.324E+01  +5.634E+03
  +1.16E+05  +3.86E+05  +1.54E+05  -1.398E+03  +3.272E+03  -2.719E+03  +1.174E+01  -8.194E+02  -6.324E+01  +5.634E+03
  +9.53E+04  +3.68E+05  +1.46E+05  -1.398E+03  +3.272E+03  -2.719E+03  +1.174E+01  -8.194E+02  -6.324E+01  +5.634E+03
  +9.82E+04  +3.80E+05  +1.77E+05  -1.398E+03  +3.272E+03  -2.719E+03  +1.174E+01  -8.194E+02  -6.324E+01  +5.634E+03

element # = 888     type =4-n tetrahedron
 XX         YY         ZZ         SIGXX       SIGYY       SIGZZ       TAUXY       TAUYZ       TAUZX       SIGV
  +7.54E+04  +2.75E+05  +4.80E+04  +4.911E+02  -7.426E+03  +9.139E+02  +6.196E+01  -1.660E+03  -5.310E+01  +8.631E+03
  +1.15E+05  +2.70E+05  +5.24E+04  +4.911E+02  -7.426E+03  +9.139E+02  +6.196E+01  -1.660E+03  -5.310E+01  +8.631E+03
  +9.40E+04  +2.85E+05  +6.66E+04  +4.911E+02  -7.426E+03  +9.139E+02  +6.196E+01  -1.660E+03  -5.310E+01  +8.631E+03
  +9.75E+04  +2.81E+05  +2.68E+04  +4.911E+02  -7.426E+03  +9.139E+02  +6.196E+01  -1.660E+03  -5.310E+01  +8.631E+03

element # = 889     type =4-n tetrahedron
 XX         YY         ZZ         SIGXX       SIGYY       SIGZZ       TAUXY       TAUYZ       TAUZX       SIGV
  +1.07E+05  +4.01E+05  +8.67E+04  +2.942E+02  +2.504E+03  -1.556E+03  -5.666E+01  -2.251E+03  -6.496E+02  +5.373E+03
  +7.11E+04  +4.04E+05  +1.02E+05  +2.942E+02  +2.504E+03  -1.556E+03  -5.666E+01  -2.251E+03  -6.496E+02  +5.373E+03
  +9.72E+04  +4.23E+05  +1.10E+05  +2.942E+02  +2.504E+03  -1.556E+03  -5.666E+01  -2.251E+03  -6.496E+02  +5.373E+03
  +9.26E+04  +3.80E+05  +1.15E+05  +2.942E+02  +2.504E+03  -1.556E+03  -5.666E+01  -2.251E+03  -6.496E+02  +5.373E+03

element # = 890     type =4-n tetrahedron
 XX         YY         ZZ         SIGXX       SIGYY       SIGZZ       TAUXY       TAUYZ       TAUZX       SIGV
  +4.43E+04  +6.69E+05  +9.42E+04  -2.504E+02  -1.125E+03  -1.655E+02  +1.721E+02  -9.670E+02  -1.484E+02  +1.951E+03
  +5.27E+04  +6.46E+05  +7.53E+04  -2.504E+02  -1.125E+03  -1.655E+02  +1.721E+02  -9.670E+02  -1.484E+02  +1.951E+03
  +3.94E+04  +6.59E+05  +6.25E+04  -2.504E+02  -1.125E+03  -1.655E+02  +1.721E+02  -9.670E+02  -1.484E+02  +1.951E+03
  +2.19E+04  +6.63E+05  +8.91E+04  -2.504E+02  -1.125E+03  -1.655E+02  +1.721E+02  -9.670E+02  -1.484E+02  +1.951E+03

element # = 891     type =4-n tetrahedron
 XX         YY         ZZ         SIGXX       SIGYY       SIGZZ       TAUXY       TAUYZ       TAUZX       SIGV
  +4.10E+04  +4.49E+05  +1.73E+05  -2.188E+02  +6.569E+03  -6.285E+02  -3.502E+02  -5.815E+02  -1.431E+02  +7.104E+03
  +4.81E+04  +4.69E+05  +1.71E+05  -2.188E+02  +6.569E+03  -6.285E+02  -3.502E+02  -5.815E+02  -1.431E+02  +7.104E+03
  +4.36E+04  +4.57E+05  +1.89E+05  -2.188E+02  +6.569E+03  -6.285E+02  -3.502E+02  -5.815E+02  -1.431E+02  +7.104E+03
  +2.13E+04  +4.68E+05  +1.89E+05  -2.188E+02  +6.569E+03  -6.285E+02  -3.502E+02  -5.815E+02  -1.431E+02  +7.104E+03

element # = 892     type =4-n tetrahedron
 XX         YY         ZZ         SIGXX       SIGYY       SIGZZ       TAUXY       TAUYZ       TAUZX       SIGV
  +1.36E+05  +9.93E+05  +4.32E+04  +2.862E+01  -6.998E+00  -3.372E+01  +6.341E+00  -2.757E+01  +7.510E+00  +7.419E+01
  +1.24E+05  +9.93E+05  +2.01E+04  +2.862E+01  -6.998E+00  -3.372E+01  +6.341E+00  -2.757E+01  +7.510E+00  +7.419E+01
  +1.15E+05  +9.93E+05  +3.92E+04  +2.862E+01  -6.998E+00  -3.372E+01  +6.341E+00  -2.757E+01  +7.510E+00  +7.419E+01
  +1.31E+05  +9.69E+05  +4.31E+04  +2.862E+01  -6.998E+00  -3.372E+01  +6.341E+00  -2.757E+01  +7.510E+00  +7.419E+01

element # = 893     type =4-n tetrahedron
 XX         YY         ZZ         SIGXX       SIGYY       SIGZZ       TAUXY       TAUYZ       TAUZX       SIGV
  +3.48E+04  +8.44E+05  +1.89E+05  -3.065E+01  +5.014E+02  -4.937E+02  -4.665E+01  -2.529E+02  -1.473E+01  +9.711E+02
  +1.24E+04  +8.44E+05  +1.66E+05  -3.065E+01  +5.014E+02  -4.937E+02  -4.665E+01  -2.529E+02  -1.473E+01  +9.711E+02
  +2.99E+04  +8.59E+05  +1.75E+05  -3.065E+01  +5.014E+02  -4.937E+02  -4.665E+01  -2.529E+02  -1.473E+01  +9.711E+02
  +1.24E+04  +8.53E+05  +1.89E+05  -3.065E+01  +5.014E+02  -4.937E+02  -4.665E+01  -2.529E+02  -1.473E+01  +9.711E+02

element # = 894     type =4-n tetrahedron
 XX         YY         ZZ         SIGXX       SIGYY       SIGZZ       TAUXY       TAUYZ       TAUZX       SIGV
  +4.04E+04  +8.94E+05  +7.79E+04  +8.804E+01  -2.383E+01  -5.474E+01  +1.689E+01  -3.551E+02  +6.288E+00  +6.295E+02
  +4.05E+04  +8.77E+05  +6.06E+04  +8.804E+01  -2.383E+01  -5.474E+01  +1.689E+01  -3.551E+02  +6.288E+00  +6.295E+02
  +2.22E+04  +8.71E+05  +8.65E+04  +8.804E+01  -2.383E+01  -5.474E+01  +1.689E+01  -3.551E+02  +6.288E+00  +6.295E+02
  +5.78E+04  +8.74E+05  +7.73E+04  +8.804E+01  -2.383E+01  -5.474E+01  +1.689E+01  -3.551E+02  +6.288E+00  +6.295E+02

element # = 895     type =4-n tetrahedron
 XX         YY         ZZ         SIGXX       SIGYY       SIGZZ       TAUXY       TAUYZ       TAUZX       SIGV
  +6.36E+03  +2.62E+05  +8.50E+04  -1.706E+03  -4.463E+03  -1.543E+02  +3.971E+01  -3.527E+03  +1.218E+03  +7.487E+03
  +2.69E+04  +2.48E+05  +9.65E+04  -1.706E+03  -4.463E+03  -1.543E+02  +3.971E+01  -3.527E+03  +1.218E+03  +7.487E+03
  +6.36E+03  +2.45E+05  +8.19E+04  -1.706E+03  -4.463E+03  -1.543E+02  +3.971E+01  -3.527E+03  +1.218E+03  +7.487E+03
  +6.36E+03  +2.46E+05  +1.01E+05  -1.706E+03  -4.463E+03  -1.543E+02  +3.971E+01  -3.527E+03  +1.218E+03  +7.487E+03

element # = 896     type =4-n tetrahedron
 XX         YY         ZZ         SIGXX       SIGYY       SIGZZ       TAUXY       TAUYZ       TAUZX       SIGV
  +7.69E+04  +6.26E+04  +2.95E+04  -2.277E+03  -2.385E+04  +3.726E+02  -1.099E+03  -1.742E+03  +6.050E+02  +2.332E+04
  +6.19E+04  +6.36E+04  +1.02E+04  -2.277E+03  -2.385E+04  +3.726E+02  -1.099E+03  -1.742E+03  +6.050E+02  +2.332E+04
  +8.32E+04  +7.77E+04  +1.02E+04  -2.277E+03  -2.385E+04  +3.726E+02  -1.099E+03  -1.742E+03  +6.050E+02  +2.332E+04
  +5.63E+04  +7.51E+04  +2.39E+04  -2.277E+03  -2.385E+04  +3.726E+02  -1.099E+03  -1.742E+03  +6.050E+02  +2.332E+04

element # = 897     type =4-n tetrahedron
 XX         YY         ZZ         SIGXX       SIGYY       SIGZZ       TAUXY       TAUYZ       TAUZX       SIGV
  +2.93E+04  +2.43E+05  +4.54E+04  -7.015E+02  -1.111E+04  -8.699E+02  +6.475E+02  -2.172E+03  +3.989E+02  +1.107E+04
  +1.23E+04  +2.45E+05  +5.85E+04  -7.015E+02  -1.111E+04  -8.699E+02  +6.475E+02  -2.172E+03  +3.989E+02  +1.107E+04
  +1.23E+04  +2.55E+05  +4.34E+04  -7.015E+02  -1.111E+04  -8.699E+02  +6.475E+02  -2.172E+03  +3.989E+02  +1.107E+04
  +3.49E+04  +2.61E+05  +4.82E+04  -7.015E+02  -1.111E+04  -8.699E+02  +6.475E+02  -2.172E+03  +3.989E+02  +1.107E+04

element # = 898     type =4-n tetrahedron
 XX         YY         ZZ         SIGXX       SIGYY       SIGZZ       TAUXY       TAUYZ       TAUZX       SIGV
  +6.99E+03  +2.69E+05  +6.67E+04  +1.619E+03  -4.203E+03  +6.061E+02  -3.795E+00  -1.411E+03  +8.132E+02  +6.081E+03
  +2.96E+04  +2.67E+05  +5.33E+04  +1.619E+03  -4.203E+03  +6.061E+02  -3.795E+00  -1.411E+03  +8.132E+02  +6.081E+03
  +6.99E+03  +2.61E+05  +4.85E+04  +1.619E+03  -4.203E+03  +6.061E+02  -3.795E+00  -1.411E+03  +8.132E+02  +6.081E+03
  +6.99E+03  +2.51E+05  +6.35E+04  +1.619E+03  -4.203E+03  +6.061E+02  -3.795E+00  -1.411E+03  +8.132E+02  +6.081E+03

element # = 899     type =4-n tetrahedron
 XX         YY         ZZ         SIGXX       SIGYY       SIGZZ       TAUXY       TAUYZ       TAUZX       SIGV
  +3.96E+04  +4.32E+05  +1.78E+05  +3.193E+02  +1.053E+04  -2.268E+02  -3.842E+02  -4.143E+02  -4.424E+02  +1.057E+04
  +4.23E+04  +4.19E+05  +1.95E+05  +3.193E+02  +1.053E+04  -2.268E+02  -3.842E+02  -4.143E+02  -4.424E+02  +1.057E+04
  +1.99E+04  +4.29E+05  +1.95E+05  +3.193E+02  +1.053E+04  -2.268E+02  -3.842E+02  -4.143E+02  -4.424E+02  +1.057E+04
  +4.23E+04  +4.40E+05  +1.95E+05  +3.193E+02  +1.053E+04  -2.268E+02  -3.842E+02  -4.143E+02  -4.424E+02  +1.057E+04

element # = 900     type =4-n tetrahedron
 XX         YY         ZZ         SIGXX       SIGYY       SIGZZ       TAUXY       TAUYZ       TAUZX       SIGV
  +1.39E+04  +4.40E+05  +3.50E+04  -1.480E+01  -7.744E+03  -3.794E+02  -3.122E+02  -6.738E+02  +1.032E+02  +7.664E+03
  +3.63E+04  +4.41E+05  +1.26E+04  -1.480E+01  -7.744E+03  -3.794E+02  -3.122E+02  -6.738E+02  +1.032E+02  +7.664E+03
  +1.39E+04  +4.30E+05  +1.26E+04  -1.480E+01  -7.744E+03  -3.794E+02  -3.122E+02  -6.738E+02  +1.032E+02  +7.664E+03
  +3.67E+04  +4.16E+05  +3.09E+04  -1.480E+01  -7.744E+03  -3.794E+02  -3.122E+02  -6.738E+02  +1.032E+02  +7.664E+03

element # = 901     type =4-n tetrahedron
 XX         YY         ZZ         SIGXX       SIGYY       SIGZZ       TAUXY       TAUYZ       TAUZX       SIGV
  +1.40E+05  +3.73E+05  +9.13E+03  -1.139E+03  -1.244E+04  -1.815E+03  +3.661E+02  -3.813E+02  -3.339E+02  +1.103E+04
  +1.40E+05  +3.94E+05  +9.13E+03  -1.139E+03  -1.244E+04  -1.815E+03  +3.661E+02  -3.813E+02  -3.339E+02  +1.103E+04
  +1.29E+05  +3.92E+05  +3.87E+04  -1.139E+03  -1.244E+04  -1.815E+03  +3.661E+02  -3.813E+02  -3.339E+02  +1.103E+04
  +1.17E+05  +3.83E+05  +9.13E+03  -1.139E+03  -1.244E+04  -1.815E+03  +3.661E+02  -3.813E+02  -3.339E+02  +1.103E+04

element # = 902     type =4-n tetrahedron
 XX         YY         ZZ         SIGXX       SIGYY       SIGZZ       TAUXY       TAUYZ       TAUZX       SIGV
  +5.91E+03  +2.88E+05  +1.36E+05  -2.968E+02  +1.011E+04  -7.347E+02  -5.983E+01  -2.449E+03  +1.094E+03  +1.160E+04
  +2.50E+04  +2.81E+05  +1.56E+05  -2.968E+02  +1.011E+04  -7.347E+02  -5.983E+01  -2.449E+03  +1.094E+03  +1.160E+04
  +5.91E+03  +2.76E+05  +1.54E+05  -2.968E+02  +1.011E+04  -7.347E+02  -5.983E+01  -2.449E+03  +1.094E+03  +1.160E+04
  +5.91E+03  +2.97E+05  +1.55E+05  -2.968E+02  +1.011E+04  -7.347E+02  -5.983E+01  -2.449E+03  +1.094E+03  +1.160E+04

element # = 903     type =4-n tetrahedron
 XX         YY         ZZ         SIGXX       SIGYY       SIGZZ       TAUXY       TAUYZ       TAUZX       SIGV
  +1.87E+05  +9.53E+05  +3.07E+04  +2.680E+01  -3.176E+01  -9.326E+00  -9.234E+00  -2.755E+01  +3.221E+00  +7.199E+01
  +1.64E+05  +9.53E+05  +7.25E+03  +2.680E+01  -3.176E+01  -9.326E+00  -9.234E+00  -2.755E+01  +3.221E+00  +7.199E+01
  +1.87E+05  +9.57E+05  +7.25E+03  +2.680E+01  -3.176E+01  -9.326E+00  -9.234E+00  -2.755E+01  +3.221E+00  +7.199E+01
  +1.69E+05  +9.78E+05  +7.25E+03  +2.680E+01  -3.176E+01  -9.326E+00  -9.234E+00  -2.755E+01  +3.221E+00  +7.199E+01

element # = 904     type =4-n tetrahedron
 XX         YY         ZZ         SIGXX       SIGYY       SIGZZ       TAUXY       TAUYZ       TAUZX       SIGV
  +1.29E+05  +5.80E+05  +7.82E+04  +8.191E+01  +2.217E+02  -2.469E+02  -5.177E+02  -1.545E+03  -2.090E+02  +2.876E+03
  +1.08E+05  +5.64E+05  +9.14E+04  +8.191E+01  +2.217E+02  -2.469E+02  -5.177E+02  -1.545E+03  -2.090E+02  +2.876E+03
  +1.13E+05  +5.93E+05  +1.08E+05  +8.191E+01  +2.217E+02  -2.469E+02  -5.177E+02  -1.545E+03  -2.090E+02  +2.876E+03
  +1.31E+05  +5.70E+05  +1.18E+05  +8.191E+01  +2.217E+02  -2.469E+02  -5.177E+02  -1.545E+03  -2.090E+02  +2.876E+03

element # = 905     type =4-n tetrahedron
 XX         YY         ZZ         SIGXX       SIGYY       SIGZZ       TAUXY       TAUYZ       TAUZX       SIGV
  +1.59E+05  +9.06E+05  +1.64E+05  -3.505E+01  +1.676E+02  -4.380E+02  +5.313E+00  -1.569E+02  -2.056E+01  +6.002E+02
  +1.85E+05  +9.13E+05  +1.86E+05  -3.505E+01  +1.676E+02  -4.380E+02  +5.313E+00  -1.569E+02  -2.056E+01  +6.002E+02
  +1.61E+05  +9.31E+05  +1.86E+05  -3.505E+01  +1.676E+02  -4.380E+02  +5.313E+00  -1.569E+02  -2.056E+01  +6.002E+02
  +1.85E+05  +9.31E+05  +1.62E+05  -3.505E+01  +1.676E+02  -4.380E+02  +5.313E+00  -1.569E+02  -2.056E+01  +6.002E+02

element # = 906     type =4-n tetrahedron
 XX         YY         ZZ         SIGXX       SIGYY       SIGZZ       TAUXY       TAUYZ       TAUZX       SIGV
  +9.88E+04  +8.43E+05  +1.83E+05  +1.471E+02  +9.161E+02  -4.264E+02  +7.727E+00  -3.376E+02  -6.626E+01  +1.310E+03
  +9.88E+04  +8.21E+05  +1.83E+05  +1.471E+02  +9.161E+02  -4.264E+02  +7.727E+00  -3.376E+02  -6.626E+01  +1.310E+03
  +1.11E+05  +8.27E+05  +1.52E+05  +1.471E+02  +9.161E+02  -4.264E+02  +7.727E+00  -3.376E+02  -6.626E+01  +1.310E+03
  +8.25E+04  +8.19E+05  +1.61E+05  +1.471E+02  +9.161E+02  -4.264E+02  +7.727E+00  -3.376E+02  -6.626E+01  +1.310E+03

element # = 907     type =4-n tetrahedron
 XX         YY         ZZ         SIGXX       SIGYY       SIGZZ       TAUXY       TAUYZ       TAUZX       SIGV
  +1.19E+05  +9.10E+05  +1.93E+05  -8.300E+01  +1.476E+02  -5.639E+02  +7.070E+00  -1.345E+02  -2.959E+01  +6.725E+02
  +1.38E+05  +8.99E+05  +1.71E+05  -8.300E+01  +1.476E+02  -5.639E+02  +7.070E+00  -1.345E+02  -2.959E+01  +6.725E+02
  +1.41E+05  +8.98E+05  +1.93E+05  -8.300E+01  +1.476E+02  -5.639E+02  +7.070E+00  -1.345E+02  -2.959E+01  +6.725E+02
  +1.41E+05  +9.24E+05  +1.93E+05  -8.300E+01  +1.476E+02  -5.639E+02  +7.070E+00  -1.345E+02  -2.959E+01  +6.725E+02

element # = 908     type =4-n tetrahedron
 XX         YY         ZZ         SIGXX       SIGYY       SIGZZ       TAUXY       TAUYZ       TAUZX       SIGV
  +1.78E+05  +5.73E+05  +7.24E+03  -4.240E+02  -7.045E+03  -2.941E+02  -6.020E+01  -5.533E+02  +3.813E+02  +6.788E+03
  +1.51E+05  +5.79E+05  +3.07E+04  -4.240E+02  -7.045E+03  -2.941E+02  -6.020E+01  -5.533E+02  +3.813E+02  +6.788E+03
  +1.55E+05  +5.63E+05  +7.24E+03  -4.240E+02  -7.045E+03  -2.941E+02  -6.020E+01  -5.533E+02  +3.813E+02  +6.788E+03
  +1.55E+05  +5.84E+05  +7.24E+03  -4.240E+02  -7.045E+03  -2.941E+02  -6.020E+01  -5.533E+02  +3.813E+02  +6.788E+03

element # = 909     type =4-n tetrahedron
 XX         YY         ZZ         SIGXX       SIGYY       SIGZZ       TAUXY       TAUYZ       TAUZX       SIGV
  +1.69E+05  +9.92E+05  +1.99E+04  +1.559E+01  -1.405E+01  -3.954E+01  -4.228E+00  -2.930E+01  +7.276E+00  +7.121E+01
  +1.87E+05  +9.67E+05  +4.34E+04  +1.559E+01  -1.405E+01  -3.954E+01  -4.228E+00  -2.930E+01  +7.276E+00  +7.121E+01
  +1.64E+05  +9.92E+05  +4.30E+04  +1.559E+01  -1.405E+01  -3.954E+01  -4.228E+00  -2.930E+01  +7.276E+00  +7.121E+01
  +1.87E+05  +9.92E+05  +3.78E+04  +1.559E+01  -1.405E+01  -3.954E+01  -4.228E+00  -2.930E+01  +7.276E+00  +7.121E+01

element # = 910     type =4-n tetrahedron
 XX         YY         ZZ         SIGXX       SIGYY       SIGZZ       TAUXY       TAUYZ       TAUZX       SIGV
  +1.92E+05  +2.26E+05  +1.11E+05  -2.166E+03  -1.478E+03  -1.784E+03  +2.836E+02  -2.763E+03  -1.308E+03  +5.351E+03
  +1.66E+05  +2.24E+05  +1.24E+05  -2.166E+03  -1.478E+03  -1.784E+03  +2.836E+02  -2.763E+03  -1.308E+03  +5.351E+03
  +1.92E+05  +2.15E+05  +1.33E+05  -2.166E+03  -1.478E+03  -1.784E+03  +2.836E+02  -2.763E+03  -1.308E+03  +5.351E+03
  +1.92E+05  +2.04E+05  +1.11E+05  -2.166E+03  -1.478E+03  -1.784E+03  +2.836E+02  -2.763E+03  -1.308E+03  +5.351E+03

element # = 911     type =4-n tetrahedron
 XX         YY         ZZ         SIGXX       SIGYY       SIGZZ       TAUXY       TAUYZ       TAUZX       SIGV
  +1.19E+05  +2.82E+05  +7.93E+03  -1.109E+03  -1.692E+04  -1.241E+03  -8.071E+02  -2.768E+03  -1.398E+03  +1.670E+04
  +1.37E+05  +2.70E+05  +3.36E+04  -1.109E+03  -1.692E+04  -1.241E+03  -8.071E+02  -2.768E+03  -1.398E+03  +1.670E+04
  +1.42E+05  +2.92E+05  +7.93E+03  -1.109E+03  -1.692E+04  -1.241E+03  -8.071E+02  -2.768E+03  -1.398E+03  +1.670E+04
  +1.42E+05  +2.71E+05  +7.93E+03  -1.109E+03  -1.692E+04  -1.241E+03  -8.071E+02  -2.768E+03  -1.398E+03  +1.670E+04

element # = 912     type =4-n tetrahedron
 XX         YY         ZZ         SIGXX       SIGYY       SIGZZ       TAUXY       TAUYZ       TAUZX       SIGV
  +1.93E+05  +2.72E+05  +6.92E+03  -1.312E+03  -1.628E+04  -4.389E+01  -3.657E+02  -1.037E+03  -1.338E+03  +1.592E+04
  +1.93E+05  +2.61E+05  +2.93E+04  -1.312E+03  -1.628E+04  -4.389E+01  -3.657E+02  -1.037E+03  -1.338E+03  +1.592E+04
  +1.93E+05  +2.51E+05  +6.92E+03  -1.312E+03  -1.628E+04  -4.389E+01  -3.657E+02  -1.037E+03  -1.338E+03  +1.592E+04
  +1.71E+05  +2.61E+05  +6.92E+03  -1.312E+03  -1.628E+04  -4.389E+01  -3.657E+02  -1.037E+03  -1.338E+03  +1.592E+04

element # = 913     type =4-n tetrahedron
 XX         YY         ZZ         SIGXX       SIGYY       SIGZZ       TAUXY       TAUYZ       TAUZX       SIGV
  +1.43E+05  +4.39E+05  +1.72E+05  +5.654E+02  +1.237E+04  +2.253E+02  -2.716E+01  -2.831E+02  -7.358E+02  +1.206E+04
  +1.43E+05  +4.42E+05  +1.93E+05  +5.654E+02  +1.237E+04  +2.253E+02  -2.716E+01  -2.831E+02  -7.358E+02  +1.206E+04
  +1.43E+05  +4.20E+05  +1.93E+05  +5.654E+02  +1.237E+04  +2.253E+02  -2.716E+01  -2.831E+02  -7.358E+02  +1.206E+04
  +1.21E+05  +4.31E+05  +1.93E+05  +5.654E+02  +1.237E+04  +2.253E+02  -2.716E+01  -2.831E+02  -7.358E+02  +1.206E+04

element # = 914     type =4-n tetrahedron
 XX         YY         ZZ         SIGXX       SIGYY       SIGZZ       TAUXY       TAUYZ       TAUZX       SIGV
  +1.93E+05  +1.65E+05  +2.94E+04  -1.709E+03  -2.431E+04  -5.921E+02  -2.605E+02  -1.297E+03  +6.335E+02  +2.332E+04
  +1.71E+05  +1.65E+05  +6.94E+03  -1.709E+03  -2.431E+04  -5.921E+02  -2.605E+02  -1.297E+03  +6.335E+02  +2.332E+04
  +1.93E+05  +1.55E+05  +6.94E+03  -1.709E+03  -2.431E+04  -5.921E+02  -2.605E+02  -1.297E+03  +6.335E+02  +2.332E+04
  +1.93E+05  +1.77E+05  +6.94E+03  -1.709E+03  -2.431E+04  -5.921E+02  -2.605E+02  -1.297E+03  +6.335E+02  +2.332E+04

element # = 915     type =4-n tetrahedron
 XX         YY         ZZ         SIGXX       SIGYY       SIGZZ       TAUXY       TAUYZ       TAUZX       SIGV
  +1.93E+05  +3.73E+05  +1.64E+05  -9.431E+02  +6.178E+03  -1.182E+03  -1.797E+02  -7.681E+02  -4.088E+02  +7.405E+03
  +1.71E+05  +3.95E+05  +1.86E+05  -9.431E+02  +6.178E+03  -1.182E+03  -1.797E+02  -7.681E+02  -4.088E+02  +7.405E+03
  +1.93E+05  +3.95E+05  +1.64E+05  -9.431E+02  +6.178E+03  -1.182E+03  -1.797E+02  -7.681E+02  -4.088E+02  +7.405E+03
  +1.93E+05  +3.84E+05  +1.86E+05  -9.431E+02  +6.178E+03  -1.182E+03  -1.797E+02  -7.681E+02  -4.088E+02  +7.405E+03

element # = 916     type =4-n tetrahedron
 XX         YY         ZZ         SIGXX       SIGYY       SIGZZ       TAUXY       TAUYZ       TAUZX       SIGV
  +1.33E+05  +1.60E+05  +1.91E+05  +4.460E+02  +2.052E+04  -2.342E+03  +5.080E+02  -2.318E+03  -5.347E+01  +2.199E+04
  +1.10E+05  +1.70E+05  +1.91E+05  +4.460E+02  +2.052E+04  -2.342E+03  +5.080E+02  -2.318E+03  -5.347E+01  +2.199E+04
  +1.10E+05  +1.48E+05  +1.91E+05  +4.460E+02  +2.052E+04  -2.342E+03  +5.080E+02  -2.318E+03  -5.347E+01  +2.199E+04
  +1.22E+05  +1.47E+05  +1.64E+05  +4.460E+02  +2.052E+04  -2.342E+03  +5.080E+02  -2.318E+03  -5.347E+01  +2.199E+04

element # = 917     type =4-n tetrahedron
 XX         YY         ZZ         SIGXX       SIGYY       SIGZZ       TAUXY       TAUYZ       TAUZX       SIGV
  +2.93E+04  +7.87E+05  +6.93E+03  -1.046E+02  -1.579E+03  -1.611E+02  +6.431E+01  -3.785E+02  +4.579E+01  +1.595E+03
  +6.92E+03  +7.87E+05  +2.93E+04  -1.046E+02  -1.579E+03  -1.611E+02  +6.431E+01  -3.785E+02  +4.579E+01  +1.595E+03
  +6.92E+03  +7.75E+05  +6.93E+03  -1.046E+02  -1.579E+03  -1.611E+02  +6.431E+01  -3.785E+02  +4.579E+01  +1.595E+03
  +6.92E+03  +7.97E+05  +6.93E+03  -1.046E+02  -1.579E+03  -1.611E+02  +6.431E+01  -3.785E+02  +4.579E+01  +1.595E+03

element # = 918     type =4-n tetrahedron
 XX         YY         ZZ         SIGXX       SIGYY       SIGZZ       TAUXY       TAUYZ       TAUZX       SIGV
  +9.82E+04  +1.26E+05  +1.42E+05  +9.017E+02  +1.252E+04  -1.999E+03  -1.057E+03  -3.495E+03  +1.365E+03  +1.492E+04
  +6.58E+04  +1.29E+05  +1.51E+05  +9.017E+02  +1.252E+04  -1.999E+03  -1.057E+03  -3.495E+03  +1.365E+03  +1.492E+04
  +7.46E+04  +1.11E+05  +1.56E+05  +9.017E+02  +1.252E+04  -1.999E+03  -1.057E+03  -3.495E+03  +1.365E+03  +1.492E+04
  +6.45E+04  +1.09E+05  +1.34E+05  +9.017E+02  +1.252E+04  -1.999E+03  -1.057E+03  -3.495E+03  +1.365E+03  +1.492E+04

element # = 919     type =4-n tetrahedron
 XX         YY         ZZ         SIGXX       SIGYY       SIGZZ       TAUXY       TAUYZ       TAUZX       SIGV
  +8.67E+04  +3.92E+05  +1.94E+05  +1.256E+03  +1.216E+04  +9.682E+02  -9.802E+01  -1.519E+03  +1.361E+02  +1.136E+04
  +6.43E+04  +4.02E+05  +1.94E+05  +1.256E+03  +1.216E+04  +9.682E+02  -9.802E+01  -1.519E+03  +1.361E+02  +1.136E+04
  +6.60E+04  +3.95E+05  +1.75E+05  +1.256E+03  +1.216E+04  +9.682E+02  -9.802E+01  -1.519E+03  +1.361E+02  +1.136E+04
  +8.67E+04  +4.13E+05  +1.94E+05  +1.256E+03  +1.216E+04  +9.682E+02  -9.802E+01  -1.519E+03  +1.361E+02  +1.136E+04

element # = 920     type =4-n tetrahedron
 XX         YY         ZZ         SIGXX       SIGYY       SIGZZ       TAUXY       TAUYZ       TAUZX       SIGV
  +1.41E+05  +4.31E+05  +1.65E+05  -1.931E+03  +5.227E+03  -1.403E+03  -1.000E+03  -1.693E+03  -3.738E+02  +7.730E+03
  +1.19E+05  +4.23E+05  +1.86E+05  -1.931E+03  +5.227E+03  -1.403E+03  -1.000E+03  -1.693E+03  -3.738E+02  +7.730E+03
  +1.42E+05  +4.12E+05  +1.86E+05  -1.931E+03  +5.227E+03  -1.403E+03  -1.000E+03  -1.693E+03  -3.738E+02  +7.730E+03
  +1.37E+05  +4.08E+05  +1.63E+05  -1.931E+03  +5.227E+03  -1.403E+03  -1.000E+03  -1.693E+03  -3.738E+02  +7.730E+03

element # = 921     type =4-n tetrahedron
 XX         YY         ZZ         SIGXX       SIGYY       SIGZZ       TAUXY       TAUYZ       TAUZX       SIGV
  +5.66E+04  +4.10E+05  +1.89E+05  -1.029E+03  +5.792E+03  -1.058E+03  +6.439E+02  -1.153E+03  +4.548E+02  +7.251E+03
  +5.40E+04  +4.23E+05  +1.72E+05  -1.029E+03  +5.792E+03  -1.058E+03  +6.439E+02  -1.153E+03  +4.548E+02  +7.251E+03
  +5.83E+04  +4.02E+05  +1.70E+05  -1.029E+03  +5.792E+03  -1.058E+03  +6.439E+02  -1.153E+03  +4.548E+02  +7.251E+03
  +7.90E+04  +4.20E+05  +1.89E+05  -1.029E+03  +5.792E+03  -1.058E+03  +6.439E+02  -1.153E+03  +4.548E+02  +7.251E+03

element # = 922     type =4-n tetrahedron
 XX         YY         ZZ         SIGXX       SIGYY       SIGZZ       TAUXY       TAUYZ       TAUZX       SIGV
  +9.49E+04  +9.86E+05  +1.52E+05  -3.205E+01  +4.369E+00  -4.430E+02  +5.897E+00  -6.703E+01  +1.569E+01  +4.467E+02
  +9.31E+04  +9.66E+05  +1.56E+05  -3.205E+01  +4.369E+00  -4.430E+02  +5.897E+00  -6.703E+01  +1.569E+01  +4.467E+02
  +1.02E+05  +9.60E+05  +1.33E+05  -3.205E+01  +4.369E+00  -4.430E+02  +5.897E+00  -6.703E+01  +1.569E+01  +4.467E+02
  +7.32E+04  +9.86E+05  +1.48E+05  -3.205E+01  +4.369E+00  -4.430E+02  +5.897E+00  -6.703E+01  +1.569E+01  +4.467E+02

element # = 923     type =4-n tetrahedron
 XX         YY         ZZ         SIGXX       SIGYY       SIGZZ       TAUXY       TAUYZ       TAUZX       SIGV
  +1.91E+05  +8.82E+05  +6.58E+04  +8.881E+00  +5.389E+01  -6.380E+01  +6.506E-01  -3.652E+02  +1.053E+01  +6.411E+02
  +1.91E+05  +8.93E+05  +8.79E+04  +8.881E+00  +5.389E+01  -6.380E+01  +6.506E-01  -3.652E+02  +1.053E+01  +6.411E+02
  +1.91E+05  +8.71E+05  +8.79E+04  +8.881E+00  +5.389E+01  -6.380E+01  +6.506E-01  -3.652E+02  +1.053E+01  +6.411E+02
  +1.64E+05  +8.65E+05  +7.09E+04  +8.881E+00  +5.389E+01  -6.380E+01  +6.506E-01  -3.652E+02  +1.053E+01  +6.411E+02

element # = 924     type =4-n tetrahedron
 XX         YY         ZZ         SIGXX       SIGYY       SIGZZ       TAUXY       TAUYZ       TAUZX       SIGV
  +4.39E+03  +9.27E+05  +1.57E+05  -5.904E+01  +1.465E+02  -5.071E+02  -3.322E+01  -1.572E+02  +1.292E+00  +6.422E+02
  +4.39E+03  +9.01E+05  +1.58E+05  -5.904E+01  +1.465E+02  -5.071E+02  -3.322E+01  -1.572E+02  +1.292E+00  +6.422E+02
  +4.39E+03  +9.09E+05  +1.81E+05  -5.904E+01  +1.465E+02  -5.071E+02  -3.322E+01  -1.572E+02  +1.292E+00  +6.422E+02
  +1.86E+04  +9.15E+05  +1.64E+05  -5.904E+01  +1.465E+02  -5.071E+02  -3.322E+01  -1.572E+02  +1.292E+00  +6.422E+02

element # = 925     type =4-n tetrahedron
 XX         YY         ZZ         SIGXX       SIGYY       SIGZZ       TAUXY       TAUYZ       TAUZX       SIGV
  +1.85E+05  +2.29E+05  +1.54E+05  +1.104E+02  +9.115E+03  -9.422E+02  -1.013E+02  -1.138E+03  -5.688E+02  +9.826E+03
  +1.63E+05  +2.50E+05  +1.76E+05  +1.104E+02  +9.115E+03  -9.422E+02  -1.013E+02  -1.138E+03  -5.688E+02  +9.826E+03
  +1.59E+05  +2.37E+05  +1.44E+05  +1.104E+02  +9.115E+03  -9.422E+02  -1.013E+02  -1.138E+03  -5.688E+02  +9.826E+03
  +1.85E+05  +2.50E+05  +1.54E+05  +1.104E+02  +9.115E+03  -9.422E+02  -1.013E+02  -1.138E+03  -5.688E+02  +9.826E+03

element # = 926     type =4-n tetrahedron
 XX         YY         ZZ         SIGXX       SIGYY       SIGZZ       TAUXY       TAUYZ       TAUZX       SIGV
  +2.93E+04  +3.57E+05  +1.95E+05  +6.213E+02  +1.406E+04  -5.076E+02  -2.842E+02  -1.183E+03  +5.206E+02  +1.422E+04
  +6.91E+03  +3.47E+05  +1.95E+05  +6.213E+02  +1.406E+04  -5.076E+02  -2.842E+02  -1.183E+03  +5.206E+02  +1.422E+04
  +6.91E+03  +3.57E+05  +1.78E+05  +6.213E+02  +1.406E+04  -5.076E+02  -2.842E+02  -1.183E+03  +5.206E+02  +1.422E+04
  +6.91E+03  +3.68E+05  +1.95E+05  +6.213E+02  +1.406E+04  -5.076E+02  -2.842E+02  -1.183E+03  +5.206E+02  +1.422E+04

element # = 927     type =4-n tetrahedron
 XX         YY         ZZ         SIGXX       SIGYY       SIGZZ       TAUXY       TAUYZ       TAUZX       SIGV
  +6.91E+03  +3.55E+05  +2.44E+04  -7.958E+02  -1.407E+04  -2.861E+02  +3.379E+02  -1.328E+03  +5.165E+02  +1.377E+04
  +6.91E+03  +3.46E+05  +5.76E+03  -7.958E+02  -1.407E+04  -2.861E+02  +3.379E+02  -1.328E+03  +5.165E+02  +1.377E+04
  +2.93E+04  +3.56E+05  +5.76E+03  -7.958E+02  -1.407E+04  -2.861E+02  +3.379E+02  -1.328E+03  +5.165E+02  +1.377E+04
  +6.91E+03  +3.67E+05  +5.76E+03  -7.958E+02  -1.407E+04  -2.861E+02  +3.379E+02  -1.328E+03  +5.165E+02  +1.377E+04

element # = 928     type =4-n tetrahedron
 XX         YY         ZZ         SIGXX       SIGYY       SIGZZ       TAUXY       TAUYZ       TAUZX       SIGV
  +4.15E+04  +4.40E+04  +1.96E+05  +3.631E+03  +3.073E+04  +2.678E+03  +2.076E+03  -2.290E+03  -8.317E+02  +2.814E+04
  +1.81E+04  +4.03E+04  +1.96E+05  +3.631E+03  +3.073E+04  +2.678E+03  +2.076E+03  -2.290E+03  -8.317E+02  +2.814E+04
  +3.60E+04  +1.90E+04  +1.96E+05  +3.631E+03  +3.073E+04  +2.678E+03  +2.076E+03  -2.290E+03  -8.317E+02  +2.814E+04
  +3.52E+04  +3.41E+04  +1.82E+05  +3.631E+03  +3.073E+04  +2.678E+03  +2.076E+03  -2.290E+03  -8.317E+02  +2.814E+04

element # = 929     type =4-n tetrahedron
 XX         YY         ZZ         SIGXX       SIGYY       SIGZZ       TAUXY       TAUYZ       TAUZX       SIGV
  +1.90E+05  +1.27E+05  +1.41E+05  +2.207E+03  +1.399E+04  +6.639E+02  +2.792E+02  -2.532E+03  -2.945E+03  +1.431E+04
  +1.90E+05  +1.49E+05  +1.41E+05  +2.207E+03  +1.399E+04  +6.639E+02  +2.792E+02  -2.532E+03  -2.945E+03  +1.431E+04
  +1.57E+05  +1.36E+05  +1.36E+05  +2.207E+03  +1.399E+04  +6.639E+02  +2.792E+02  -2.532E+03  -2.945E+03  +1.431E+04
  +1.90E+05  +1.38E+05  +1.19E+05  +2.207E+03  +1.399E+04  +6.639E+02  +2.792E+02  -2.532E+03  -2.945E+03  +1.431E+04

element # = 930     type =4-n tetrahedron
 XX         YY         ZZ         SIGXX       SIGYY       SIGZZ       TAUXY       TAUYZ       TAUZX       SIGV
  +1.92E+05  +1.32E+05  +5.94E+04  -3.062E+02  -1.311E+04  -1.185E+03  +6.008E+01  -2.886E+03  -2.208E+02  +1.337E+04
  +1.65E+05  +1.58E+05  +6.62E+04  -3.062E+02  -1.311E+04  -1.185E+03  +6.008E+01  -2.886E+03  -2.208E+02  +1.337E+04
  +1.92E+05  +1.54E+05  +5.93E+04  -3.062E+02  -1.311E+04  -1.185E+03  +6.008E+01  -2.886E+03  -2.208E+02  +1.337E+04
  +1.92E+05  +1.43E+05  +8.15E+04  -3.062E+02  -1.311E+04  -1.185E+03  +6.008E+01  -2.886E+03  -2.208E+02  +1.337E+04

element # = 931     type =4-n tetrahedron
 XX         YY         ZZ         SIGXX       SIGYY       SIGZZ       TAUXY       TAUYZ       TAUZX       SIGV
  +1.11E+05  +5.15E+04  +4.09E+04  -1.849E+03  -1.234E+04  -2.383E+03  +5.587E+02  +2.797E+02  -2.330E+03  +1.105E+04
  +1.39E+05  +5.24E+04  +2.16E+04  -1.849E+03  -1.234E+04  -2.383E+03  +5.587E+02  +2.797E+02  -2.330E+03  +1.105E+04
  +1.39E+05  +2.75E+04  +4.47E+04  -1.849E+03  -1.234E+04  -2.383E+03  +5.587E+02  +2.797E+02  -2.330E+03  +1.105E+04
  +1.37E+05  +6.72E+04  +4.92E+04  -1.849E+03  -1.234E+04  -2.383E+03  +5.587E+02  +2.797E+02  -2.330E+03  +1.105E+04

element # = 932     type =4-n tetrahedron
 XX         YY         ZZ         SIGXX       SIGYY       SIGZZ       TAUXY       TAUYZ       TAUZX       SIGV
  +1.30E+04  +3.17E+05  +1.71E+05  +3.288E+02  +1.259E+04  -4.032E+02  -1.409E+02  -1.256E+03  -1.347E+02  +1.283E+04
  +3.53E+04  +3.16E+05  +1.89E+05  +3.288E+02  +1.259E+04  -4.032E+02  -1.409E+02  -1.256E+03  -1.347E+02  +1.283E+04
  +1.30E+04  +3.27E+05  +1.89E+05  +3.288E+02  +1.259E+04  -4.032E+02  -1.409E+02  -1.256E+03  -1.347E+02  +1.283E+04
  +3.25E+04  +3.25E+05  +1.70E+05  +3.288E+02  +1.259E+04  -4.032E+02  -1.409E+02  -1.256E+03  -1.347E+02  +1.283E+04

element # = 933     type =4-n tetrahedron
 XX         YY         ZZ         SIGXX       SIGYY       SIGZZ       TAUXY       TAUYZ       TAUZX       SIGV
  +1.71E+05  +2.61E+05  +1.93E+05  +1.143E+03  +1.689E+04  +6.076E+02  +4.739E+02  -9.590E+02  -1.667E+03  +1.638E+04
  +1.93E+05  +2.72E+05  +1.93E+05  +1.143E+03  +1.689E+04  +6.076E+02  +4.739E+02  -9.590E+02  -1.667E+03  +1.638E+04
  +1.93E+05  +2.61E+05  +1.71E+05  +1.143E+03  +1.689E+04  +6.076E+02  +4.739E+02  -9.590E+02  -1.667E+03  +1.638E+04
  +1.93E+05  +2.51E+05  +1.93E+05  +1.143E+03  +1.689E+04  +6.076E+02  +4.739E+02  -9.590E+02  -1.667E+03  +1.638E+04

element # = 934     type =4-n tetrahedron
 XX         YY         ZZ         SIGXX       SIGYY       SIGZZ       TAUXY       TAUYZ       TAUZX       SIGV
  +1.63E+05  +2.09E+05  +1.76E+05  -9.107E+02  +9.416E+03  -7.164E+02  +5.012E+01  -5.512E+01  +1.040E+03  +1.039E+04
  +1.85E+05  +1.87E+05  +1.54E+05  -9.107E+02  +9.416E+03  -7.164E+02  +5.012E+01  -5.512E+01  +1.040E+03  +1.039E+04
  +1.85E+05  +2.09E+05  +1.54E+05  -9.107E+02  +9.416E+03  -7.164E+02  +5.012E+01  -5.512E+01  +1.040E+03  +1.039E+04
  +1.59E+05  +2.17E+05  +1.44E+05  -9.107E+02  +9.416E+03  -7.164E+02  +5.012E+01  -5.512E+01  +1.040E+03  +1.039E+04

element # = 935     type =4-n tetrahedron
 XX         YY         ZZ         SIGXX       SIGYY       SIGZZ       TAUXY       TAUYZ       TAUZX       SIGV
  +5.20E+04  +1.11E+05  +1.85E+05  +1.146E+03  +1.663E+04  -2.229E+02  -1.238E+02  -1.007E+03  +1.589E+03  +1.654E+04
  +5.34E+04  +1.23E+05  +1.66E+05  +1.146E+03  +1.663E+04  -2.229E+02  -1.238E+02  -1.007E+03  +1.589E+03  +1.654E+04
  +4.56E+04  +9.57E+04  +1.69E+05  +1.146E+03  +1.663E+04  -2.229E+02  -1.238E+02  -1.007E+03  +1.589E+03  +1.654E+04
  +6.21E+04  +1.06E+05  +1.71E+05  +1.146E+03  +1.663E+04  -2.229E+02  -1.238E+02  -1.007E+03  +1.589E+03  +1.654E+04

element # = 936     type =4-n tetrahedron
 XX         YY         ZZ         SIGXX       SIGYY       SIGZZ       TAUXY       TAUYZ       TAUZX       SIGV
  +1.33E+05  +9.42E+05  +7.09E+03  +4.557E+01  -1.225E+02  -5.766E+01  +5.123E+00  -6.892E+01  -2.107E+01  +1.929E+02
  +1.12E+05  +9.28E+05  +7.09E+03  +4.557E+01  -1.225E+02  -5.766E+01  +5.123E+00  -6.892E+01  -2.107E+01  +1.929E+02
  +1.12E+05  +9.49E+05  +7.09E+03  +4.557E+01  -1.225E+02  -5.766E+01  +5.123E+00  -6.892E+01  -2.107E+01  +1.929E+02
  +1.29E+05  +9.44E+05  +3.00E+04  +4.557E+01  -1.225E+02  -5.766E+01  +5.123E+00  -6.892E+01  -2.107E+01  +1.929E+02

element # = 937     type =4-n tetrahedron
 XX         YY         ZZ         SIGXX       SIGYY       SIGZZ       TAUXY       TAUYZ       TAUZX       SIGV
  +1.05E+05  +4.49E+04  +3.24E+04  -2.737E+03  -2.047E+04  -2.576E+03  -7.310E+02  -2.035E+03  -7.573E+02  +1.825E+04
  +1.33E+05  +4.58E+04  +1.31E+04  -2.737E+03  -2.047E+04  -2.576E+03  -7.310E+02  -2.035E+03  -7.573E+02  +1.825E+04
  +1.11E+05  +3.92E+04  +1.31E+04  -2.737E+03  -2.047E+04  -2.576E+03  -7.310E+02  -2.035E+03  -7.573E+02  +1.825E+04
  +1.33E+05  +2.08E+04  +3.62E+04  -2.737E+03  -2.047E+04  -2.576E+03  -7.310E+02  -2.035E+03  -7.573E+02  +1.825E+04

element # = 938     type =4-n tetrahedron
 XX         YY         ZZ         SIGXX       SIGYY       SIGZZ       TAUXY       TAUYZ       TAUZX       SIGV
  +1.60E+05  +8.07E+04  +4.34E+04  -9.069E+02  -1.893E+04  +3.835E+02  -5.673E+02  -1.227E+03  -5.763E+02  +1.888E+04
  +1.85E+05  +8.35E+04  +1.58E+04  -9.069E+02  -1.893E+04  +3.835E+02  -5.673E+02  -1.227E+03  -5.763E+02  +1.888E+04
  +1.62E+05  +6.59E+04  +1.58E+04  -9.069E+02  -1.893E+04  +3.835E+02  -5.673E+02  -1.227E+03  -5.763E+02  +1.888E+04
  +1.85E+05  +6.59E+04  +3.92E+04  -9.069E+02  -1.893E+04  +3.835E+02  -5.673E+02  -1.227E+03  -5.763E+02  +1.888E+04

element # = 939     type =4-n tetrahedron
 XX         YY         ZZ         SIGXX       SIGYY       SIGZZ       TAUXY       TAUYZ       TAUZX       SIGV
  +1.93E+05  +7.29E+05  +3.62E+04  +2.630E+02  -1.021E+03  +1.189E+02  +8.785E+01  -4.791E+02  -1.026E+02  +1.493E+03
  +1.93E+05  +7.07E+05  +3.62E+04  +2.630E+02  -1.021E+03  +1.189E+02  +8.785E+01  -4.791E+02  -1.026E+02  +1.493E+03
  +1.93E+05  +7.18E+05  +1.38E+04  +2.630E+02  -1.021E+03  +1.189E+02  +8.785E+01  -4.791E+02  -1.026E+02  +1.493E+03
  +1.71E+05  +7.29E+05  +1.38E+04  +2.630E+02  -1.021E+03  +1.189E+02  +8.785E+01  -4.791E+02  -1.026E+02  +1.493E+03

element # = 940     type =4-n tetrahedron
 XX         YY         ZZ         SIGXX       SIGYY       SIGZZ       TAUXY       TAUYZ       TAUZX       SIGV
  +1.40E+05  +1.49E+05  +1.91E+05  +3.836E+02  +2.295E+04  -1.574E+03  +8.252E+02  -2.628E+03  -2.189E+02  +2.409E+04
  +1.29E+05  +1.36E+05  +1.64E+05  +3.836E+02  +2.295E+04  -1.574E+03  +8.252E+02  -2.628E+03  -2.189E+02  +2.409E+04
  +1.17E+05  +1.38E+05  +1.91E+05  +3.836E+02  +2.295E+04  -1.574E+03  +8.252E+02  -2.628E+03  -2.189E+02  +2.409E+04
  +1.39E+05  +1.27E+05  +1.91E+05  +3.836E+02  +2.295E+04  -1.574E+03  +8.252E+02  -2.628E+03  -2.189E+02  +2.409E+04

element # = 941     type =4-n tetrahedron
 XX         YY         ZZ         SIGXX       SIGYY       SIGZZ       TAUXY       TAUYZ       TAUZX       SIGV
  +1.67E+05  +7.75E+04  +7.10E+04  +6.086E+02  +9.397E+02  -1.401E+03  +1.186E+03  -3.099E+03  -1.342E+03  +6.576E+03
  +1.92E+05  +5.61E+04  +8.81E+04  +6.086E+02  +9.397E+02  -1.401E+03  +1.186E+03  -3.099E+03  -1.342E+03  +6.576E+03
  +1.92E+05  +7.69E+04  +8.81E+04  +6.086E+02  +9.397E+02  -1.401E+03  +1.186E+03  -3.099E+03  -1.342E+03  +6.576E+03
  +1.92E+05  +6.28E+04  +6.69E+04  +6.086E+02  +9.397E+02  -1.401E+03  +1.186E+03  -3.099E+03  -1.342E+03  +6.576E+03

element # = 942     type =4-n tetrahedron
 XX         YY         ZZ         SIGXX       SIGYY       SIGZZ       TAUXY       TAUYZ       TAUZX       SIGV
  +1.86E+05  +1.54E+05  +1.71E+05  +1.511E+03  +2.408E+04  +1.028E+03  +1.790E+01  -9.432E+02  +6.293E+02  +2.290E+04
  +1.64E+05  +1.31E+05  +1.93E+05  +1.511E+03  +2.408E+04  +1.028E+03  +1.790E+01  -9.432E+02  +6.293E+02  +2.290E+04
  +1.64E+05  +1.54E+05  +1.93E+05  +1.511E+03  +2.408E+04  +1.028E+03  +1.790E+01  -9.432E+02  +6.293E+02  +2.290E+04
  +1.86E+05  +1.45E+05  +1.93E+05  +1.511E+03  +2.408E+04  +1.028E+03  +1.790E+01  -9.432E+02  +6.293E+02  +2.290E+04

element # = 943     type =4-n tetrahedron
 XX         YY         ZZ         SIGXX       SIGYY       SIGZZ       TAUXY       TAUYZ       TAUZX       SIGV
  +1.28E+04  +2.74E+05  +1.95E+05  +6.546E+02  +1.678E+04  +2.708E+02  -2.941E+02  -1.025E+03  +5.043E+01  +1.643E+04
  +3.19E+04  +2.70E+05  +1.79E+05  +6.546E+02  +1.678E+04  +2.708E+02  -2.941E+02  -1.025E+03  +5.043E+01  +1.643E+04
  +1.28E+04  +2.53E+05  +1.95E+05  +6.546E+02  +1.678E+04  +2.708E+02  -2.941E+02  -1.025E+03  +5.043E+01  +1.643E+04
  +3.52E+04  +2.63E+05  +1.95E+05  +6.546E+02  +1.678E+04  +2.708E+02  -2.941E+02  -1.025E+03  +5.043E+01  +1.643E+04

element # = 944     type =4-n tetrahedron
 XX         YY         ZZ         SIGXX       SIGYY       SIGZZ       TAUXY       TAUYZ       TAUZX       SIGV
  +1.87E+05  +2.79E+04  +1.27E+04  -1.363E+04  -3.180E+04  -1.363E+04  +4.355E+03  -5.952E+03  +0.000E+00  +2.221E+04
  +1.64E+05  +6.58E+03  +3.58E+04  -1.363E+04  -3.180E+04  -1.363E+04  +4.355E+03  -5.952E+03  +0.000E+00  +2.221E+04
  +1.87E+05  +6.58E+03  +3.06E+04  -1.363E+04  -3.180E+04  -1.363E+04  +4.355E+03  -5.952E+03  +0.000E+00  +2.221E+04
  +1.69E+05  +6.58E+03  +1.27E+04  -1.363E+04  -3.180E+04  -1.363E+04  +4.355E+03  -5.952E+03  +0.000E+00  +2.221E+04

element # = 945     type =4-n tetrahedron
 XX         YY         ZZ         SIGXX       SIGYY       SIGZZ       TAUXY       TAUYZ       TAUZX       SIGV
  +3.69E+04  +2.92E+05  +1.55E+05  +1.044E+02  +9.736E+03  -2.871E+02  -2.657E+02  -1.996E+03  -5.130E+02  +1.047E+04
  +3.65E+04  +3.06E+05  +1.32E+05  +1.044E+02  +9.736E+03  -2.871E+02  -2.657E+02  -1.996E+03  -5.130E+02  +1.047E+04
  +3.73E+04  +3.17E+05  +1.52E+05  +1.044E+02  +9.736E+03  -2.871E+02  -2.657E+02  -1.996E+03  -5.130E+02  +1.047E+04
  +1.77E+04  +3.08E+05  +1.53E+05  +1.044E+02  +9.736E+03  -2.871E+02  -2.657E+02  -1.996E+03  -5.130E+02  +1.047E+04

element # = 946     type =4-n tetrahedron
 XX         YY         ZZ         SIGXX       SIGYY       SIGZZ       TAUXY       TAUYZ       TAUZX       SIGV
  +1.30E+05  +7.37E+05  +1.66E+05  +2.563E+02  +2.357E+03  -1.978E+02  +9.400E+01  -3.257E+02  -5.425E+01  +2.434E+03
  +1.40E+05  +7.09E+05  +1.92E+05  +2.563E+02  +2.357E+03  -1.978E+02  +9.400E+01  -3.257E+02  -5.425E+01  +2.434E+03
  +1.18E+05  +7.20E+05  +1.92E+05  +2.563E+02  +2.357E+03  -1.978E+02  +9.400E+01  -3.257E+02  -5.425E+01  +2.434E+03
  +1.40E+05  +7.31E+05  +1.92E+05  +2.563E+02  +2.357E+03  -1.978E+02  +9.400E+01  -3.257E+02  -5.425E+01  +2.434E+03

element # = 947     type =4-n tetrahedron
 XX         YY         ZZ         SIGXX       SIGYY       SIGZZ       TAUXY       TAUYZ       TAUZX       SIGV
  +5.66E+04  +9.64E+05  +1.77E+05  -2.717E+01  +1.075E+01  -4.289E+02  -5.823E+00  -1.835E+01  +5.585E+00  +4.234E+02
  +8.05E+04  +9.61E+05  +1.77E+05  -2.717E+01  +1.075E+01  -4.289E+02  -5.823E+00  -1.835E+01  +5.585E+00  +4.234E+02
  +6.10E+04  +9.56E+05  +1.91E+05  -2.717E+01  +1.075E+01  -4.289E+02  -5.823E+00  -1.835E+01  +5.585E+00  +4.234E+02
  +7.33E+04  +9.81E+05  +1.91E+05  -2.717E+01  +1.075E+01  -4.289E+02  -5.823E+00  -1.835E+01  +5.585E+00  +4.234E+02

element # = 948     type =4-n tetrahedron
 XX         YY         ZZ         SIGXX       SIGYY       SIGZZ       TAUXY       TAUYZ       TAUZX       SIGV
  +9.44E+04  +7.28E+05  +1.61E+05  +2.156E+02  +2.360E+03  -3.514E+02  -3.142E+02  -4.901E+02  -1.842E+02  +2.694E+03
  +1.14E+05  +7.44E+05  +1.58E+05  +2.156E+02  +2.360E+03  -3.514E+02  -3.142E+02  -4.901E+02  -1.842E+02  +2.694E+03
  +1.02E+05  +7.27E+05  +1.85E+05  +2.156E+02  +2.360E+03  -3.514E+02  -3.142E+02  -4.901E+02  -1.842E+02  +2.694E+03
  +1.02E+05  +7.49E+05  +1.85E+05  +2.156E+02  +2.360E+03  -3.514E+02  -3.142E+02  -4.901E+02  -1.842E+02  +2.694E+03

element # = 949     type =4-n tetrahedron
 XX         YY         ZZ         SIGXX       SIGYY       SIGZZ       TAUXY       TAUYZ       TAUZX       SIGV
  +1.93E+05  +9.87E+05  +1.25E+05  +3.957E+00  +3.654E+01  -2.775E+02  -1.931E+01  -1.197E+02  +3.376E+01  +3.701E+02
  +1.70E+05  +9.87E+05  +1.38E+05  +3.957E+00  +3.654E+01  -2.775E+02  -1.931E+01  -1.197E+02  +3.376E+01  +3.701E+02
  +1.93E+05  +9.62E+05  +1.37E+05  +3.957E+00  +3.654E+01  -2.775E+02  -1.931E+01  -1.197E+02  +3.376E+01  +3.701E+02
  +1.93E+05  +9.68E+05  +1.16E+05  +3.957E+00  +3.654E+01  -2.775E+02  -1.931E+01  -1.197E+02  +3.376E+01  +3.701E+02

element # = 950     type =4-n tetrahedron
 XX         YY         ZZ         SIGXX       SIGYY       SIGZZ       TAUXY       TAUYZ       TAUZX       SIGV
  +5.13E+04  +2.41E+05  +1.68E+05  -1.863E+03  +1.008E+04  -1.476E+03  -1.183E+03  -4.367E+02  +4.237E+02  +1.198E+04
  +5.16E+04  +2.62E+05  +1.72E+05  -1.863E+03  +1.008E+04  -1.476E+03  -1.183E+03  -4.367E+02  +4.237E+02  +1.198E+04
  +7.72E+04  +2.44E+05  +1.89E+05  -1.863E+03  +1.008E+04  -1.476E+03  -1.183E+03  -4.367E+02  +4.237E+02  +1.198E+04
  +5.48E+04  +2.55E+05  +1.89E+05  -1.863E+03  +1.008E+04  -1.476E+03  -1.183E+03  -4.367E+02  +4.237E+02  +1.198E+04

element # = 951     type =4-n tetrahedron
 XX         YY         ZZ         SIGXX       SIGYY       SIGZZ       TAUXY       TAUYZ       TAUZX       SIGV
  +1.23E+05  +6.98E+05  +1.47E+05  -3.388E+02  +6.343E+02  -1.060E+03  +1.132E+01  -6.700E+02  -1.820E+02  +1.901E+03
  +1.19E+05  +7.32E+05  +1.49E+05  -3.388E+02  +6.343E+02  -1.060E+03  +1.132E+01  -6.700E+02  -1.820E+02  +1.901E+03
  +1.07E+05  +7.15E+05  +1.76E+05  -3.388E+02  +6.343E+02  -1.060E+03  +1.132E+01  -6.700E+02  -1.820E+02  +1.901E+03
  +9.95E+04  +7.16E+05  +1.52E+05  -3.388E+02  +6.343E+02  -1.060E+03  +1.132E+01  -6.700E+02  -1.820E+02  +1.901E+03

element # = 952     type =4-n tetrahedron
 XX         YY         ZZ         SIGXX       SIGYY       SIGZZ       TAUXY       TAUYZ       TAUZX       SIGV
  +4.91E+04  +2.88E+05  +1.53E+05  -8.291E+01  +9.611E+03  -4.712E+02  +7.390E+00  -2.030E+03  +8.669E+02  +1.061E+04
  +4.88E+04  +3.02E+05  +1.30E+05  -8.291E+01  +9.611E+03  -4.712E+02  +7.390E+00  -2.030E+03  +8.669E+02  +1.061E+04
  +6.97E+04  +2.91E+05  +1.46E+05  -8.291E+01  +9.611E+03  -4.712E+02  +7.390E+00  -2.030E+03  +8.669E+02  +1.061E+04
  +4.95E+04  +3.13E+05  +1.51E+05  -8.291E+01  +9.611E+03  -4.712E+02  +7.390E+00  -2.030E+03  +8.669E+02  +1.061E+04

element # = 953     type =4-n tetrahedron
 XX         YY         ZZ         SIGXX       SIGYY       SIGZZ       TAUXY       TAUYZ       TAUZX       SIGV
  +1.24E+05  +3.18E+05  +1.47E+05  -3.971E+01  +6.770E+03  -1.071E+03  +2.851E+02  -5.294E+02  +1.308E+03  +7.789E+03
  +1.04E+05  +3.26E+05  +1.75E+05  -3.971E+01  +6.770E+03  -1.071E+03  +2.851E+02  -5.294E+02  +1.308E+03  +7.789E+03
  +9.86E+04  +3.04E+05  +1.51E+05  -3.971E+01  +6.770E+03  -1.071E+03  +2.851E+02  -5.294E+02  +1.308E+03  +7.789E+03
  +1.01E+05  +3.36E+05  +1.43E+05  -3.971E+01  +6.770E+03  -1.071E+03  +2.851E+02  -5.294E+02  +1.308E+03  +7.789E+03

element # = 954     type =4-n tetrahedron
 XX         YY         ZZ         SIGXX       SIGYY       SIGZZ       TAUXY       TAUYZ       TAUZX       SIGV
  +1.25E+04  +5.85E+05  +5.38E+04  -1.819E+01  -2.636E+03  -5.144E+01  -1.694E+02  -1.204E+03  +3.339E+00  +3.347E+03
  +1.25E+04  +5.64E+05  +5.38E+04  -1.819E+01  -2.636E+03  -5.144E+01  -1.694E+02  -1.204E+03  +3.339E+00  +3.347E+03
  +3.19E+04  +5.75E+05  +7.09E+04  -1.819E+01  -2.636E+03  -5.144E+01  -1.694E+02  -1.204E+03  +3.339E+00  +3.347E+03
  +3.34E+04  +5.85E+05  +4.88E+04  -1.819E+01  -2.636E+03  -5.144E+01  -1.694E+02  -1.204E+03  +3.339E+00  +3.347E+03

element # = 955     type =4-n tetrahedron
 XX         YY         ZZ         SIGXX       SIGYY       SIGZZ       TAUXY       TAUYZ       TAUZX       SIGV
  +1.14E+04  +5.62E+05  +1.81E+05  +4.102E+02  +4.100E+03  -8.122E+02  -1.970E+02  -5.220E+02  -6.463E+01  +4.535E+03
  +1.14E+04  +5.51E+05  +1.59E+05  +4.102E+02  +4.100E+03  -8.122E+02  -1.970E+02  -5.220E+02  -6.463E+01  +4.535E+03
  +2.92E+04  +5.42E+05  +1.66E+05  +4.102E+02  +4.100E+03  -8.122E+02  -1.970E+02  -5.220E+02  -6.463E+01  +4.535E+03
  +3.06E+04  +5.61E+05  +1.57E+05  +4.102E+02  +4.100E+03  -8.122E+02  -1.970E+02  -5.220E+02  -6.463E+01  +4.535E+03

element # = 956     type =4-n tetrahedron
 XX         YY         ZZ         SIGXX       SIGYY       SIGZZ       TAUXY       TAUYZ       TAUZX       SIGV
  +5.78E+04  +7.62E+05  +1.80E+05  +2.240E+02  +1.839E+03  -3.526E+02  -9.464E+01  -3.799E+02  +1.151E+02  +2.090E+03
  +7.95E+04  +7.63E+05  +1.95E+05  +2.240E+02  +1.839E+03  -3.526E+02  -9.464E+01  -3.799E+02  +1.151E+02  +2.090E+03
  +5.72E+04  +7.52E+05  +1.95E+05  +2.240E+02  +1.839E+03  -3.526E+02  -9.464E+01  -3.799E+02  +1.151E+02  +2.090E+03
  +5.72E+04  +7.74E+05  +1.95E+05  +2.240E+02  +1.839E+03  -3.526E+02  -9.464E+01  -3.799E+02  +1.151E+02  +2.090E+03

element # = 957     type =4-n tetrahedron
 XX         YY         ZZ         SIGXX       SIGYY       SIGZZ       TAUXY       TAUYZ       TAUZX       SIGV
  +2.09E+04  +7.62E+05  +1.95E+05  +5.756E+01  +1.762E+03  -4.403E+02  -7.996E+01  -3.792E+02  -3.664E+01  +2.111E+03
  +4.39E+04  +7.62E+05  +1.80E+05  +5.756E+01  +1.762E+03  -4.403E+02  -7.996E+01  -3.792E+02  -3.664E+01  +2.111E+03
  +4.33E+04  +7.52E+05  +1.95E+05  +5.756E+01  +1.762E+03  -4.403E+02  -7.996E+01  -3.792E+02  -3.664E+01  +2.111E+03
  +4.34E+04  +7.73E+05  +1.95E+05  +5.756E+01  +1.762E+03  -4.403E+02  -7.996E+01  -3.792E+02  -3.664E+01  +2.111E+03

element # = 958     type =4-n tetrahedron
 XX         YY         ZZ         SIGXX       SIGYY       SIGZZ       TAUXY       TAUYZ       TAUZX       SIGV
  +6.19E+04  +5.95E+05  +2.27E+04  -4.970E+02  -6.234E+03  -2.491E+02  +5.015E+02  -4.097E+02  +2.057E+02  +5.982E+03
  +8.57E+04  +5.85E+05  +5.36E+03  -4.970E+02  -6.234E+03  -2.491E+02  +5.015E+02  -4.097E+02  +2.057E+02  +5.982E+03
  +8.57E+04  +6.06E+05  +5.36E+03  -4.970E+02  -6.234E+03  -2.491E+02  +5.015E+02  -4.097E+02  +2.057E+02  +5.982E+03
  +6.34E+04  +5.95E+05  +5.36E+03  -4.970E+02  -6.234E+03  -2.491E+02  +5.015E+02  -4.097E+02  +2.057E+02  +5.982E+03

element # = 959     type =4-n tetrahedron
 XX         YY         ZZ         SIGXX       SIGYY       SIGZZ       TAUXY       TAUYZ       TAUZX       SIGV
  +1.80E+05  +9.18E+05  +1.16E+05  +3.180E+01  +1.157E+02  -3.194E+02  +2.117E+01  -2.869E+02  -8.151E+00  +6.390E+02
  +1.55E+05  +9.07E+05  +1.38E+05  +3.180E+01  +1.157E+02  -3.194E+02  +2.117E+01  -2.869E+02  -8.151E+00  +6.390E+02
  +1.42E+05  +9.31E+05  +1.22E+05  +3.180E+01  +1.157E+02  -3.194E+02  +2.117E+01  -2.869E+02  -8.151E+00  +6.390E+02
  +1.80E+05  +9.32E+05  +1.37E+05  +3.180E+01  +1.157E+02  -3.194E+02  +2.117E+01  -2.869E+02  -8.151E+00  +6.390E+02

element # = 960     type =4-n tetrahedron
 XX         YY         ZZ         SIGXX       SIGYY       SIGZZ       TAUXY       TAUYZ       TAUZX       SIGV
  +7.67E+04  +1.24E+05  +3.33E+04  -1.526E+03  -2.403E+04  -8.461E+02  +1.417E+03  +4.761E+02  -5.069E+02  +2.302E+04
  +8.93E+04  +1.04E+05  +7.87E+03  -1.526E+03  -2.403E+04  -8.461E+02  +1.417E+03  +4.761E+02  -5.069E+02  +2.302E+04
  +8.93E+04  +1.27E+05  +7.87E+03  -1.526E+03  -2.403E+04  -8.461E+02  +1.417E+03  +4.761E+02  -5.069E+02  +2.302E+04
  +6.71E+04  +1.16E+05  +7.87E+03  -1.526E+03  -2.403E+04  -8.461E+02  +1.417E+03  +4.761E+02  -5.069E+02  +2.302E+04

element # = 961     type =4-n tetrahedron
 XX         YY         ZZ         SIGXX       SIGYY       SIGZZ       TAUXY       TAUYZ       TAUZX       SIGV
  +4.71E+04  +7.34E+04  +5.60E+04  -4.704E+03  -2.139E+04  -4.195E+03  -1.083E+03  -1.010E+03  +1.736E+03  +1.740E+04
  +6.70E+04  +5.97E+04  +4.39E+04  -4.704E+03  -2.139E+04  -4.195E+03  -1.083E+03  -1.010E+03  +1.736E+03  +1.740E+04
  +4.63E+04  +7.22E+04  +3.83E+04  -4.704E+03  -2.139E+04  -4.195E+03  -1.083E+03  -1.010E+03  +1.736E+03  +1.740E+04
  +4.61E+04  +5.25E+04  +3.97E+04  -4.704E+03  -2.139E+04  -4.195E+03  -1.083E+03  -1.010E+03  +1.736E+03  +1.740E+04

element # = 962     type =4-n tetrahedron
 XX         YY         ZZ         SIGXX       SIGYY       SIGZZ       TAUXY       TAUYZ       TAUZX       SIGV
  +1.13E+05  +8.48E+05  +1.26E+05  +1.228E+02  +3.578E+02  -1.179E+02  +5.250E+00  -4.370E+02  -1.223E+01  +8.621E+02
  +9.17E+04  +8.67E+05  +1.03E+05  +1.228E+02  +3.578E+02  -1.179E+02  +5.250E+00  -4.370E+02  -1.223E+01  +8.621E+02
  +1.20E+05  +8.76E+05  +1.35E+05  +1.228E+02  +3.578E+02  -1.179E+02  +5.250E+00  -4.370E+02  -1.223E+01  +8.621E+02
  +8.14E+04  +8.71E+05  +1.25E+05  +1.228E+02  +3.578E+02  -1.179E+02  +5.250E+00  -4.370E+02  -1.223E+01  +8.621E+02

element # = 963     type =4-n tetrahedron
 XX         YY         ZZ         SIGXX       SIGYY       SIGZZ       TAUXY       TAUYZ       TAUZX       SIGV
  +1.95E+04  +8.61E+05  +5.80E+03  -1.233E+01  -5.320E+02  -6.226E+01  -3.491E+00  -1.643E+02  -1.090E+01  +5.727E+02
  +4.20E+04  +8.51E+05  +5.80E+03  -1.233E+01  -5.320E+02  -6.226E+01  -3.491E+00  -1.643E+02  -1.090E+01  +5.727E+02
  +3.78E+04  +8.68E+05  +2.46E+04  -1.233E+01  -5.320E+02  -6.226E+01  -3.491E+00  -1.643E+02  -1.090E+01  +5.727E+02
  +4.21E+04  +8.74E+05  +5.80E+03  -1.233E+01  -5.320E+02  -6.226E+01  -3.491E+00  -1.643E+02  -1.090E+01  +5.727E+02

element # = 964     type =4-n tetrahedron
 XX         YY         ZZ         SIGXX       SIGYY       SIGZZ       TAUXY       TAUYZ       TAUZX       SIGV
  +1.31E+05  +6.89E+05  +1.07E+05  -3.009E+02  -1.025E+03  -6.709E+02  +5.375E+01  -1.366E+03  -3.382E+02  +2.519E+03
  +1.28E+05  +7.26E+05  +7.72E+04  -3.009E+02  -1.025E+03  -6.709E+02  +5.375E+01  -1.366E+03  -3.382E+02  +2.519E+03
  +1.11E+05  +6.97E+05  +7.93E+04  -3.009E+02  -1.025E+03  -6.709E+02  +5.375E+01  -1.366E+03  -3.382E+02  +2.519E+03
  +1.34E+05  +6.86E+05  +7.16E+04  -3.009E+02  -1.025E+03  -6.709E+02  +5.375E+01  -1.366E+03  -3.382E+02  +2.519E+03

element # = 965     type =4-n tetrahedron
 XX         YY         ZZ         SIGXX       SIGYY       SIGZZ       TAUXY       TAUYZ       TAUZX       SIGV
  +1.11E+05  +5.97E+05  +4.56E+04  +1.168E+02  -2.832E+03  -2.266E+01  +6.760E+01  -8.057E+02  -6.345E+01  +3.206E+03
  +7.99E+04  +6.17E+05  +5.31E+04  +1.168E+02  -2.832E+03  -2.266E+01  +6.760E+01  -8.057E+02  -6.345E+01  +3.206E+03
  +7.00E+04  +6.02E+05  +3.95E+04  +1.168E+02  -2.832E+03  -2.266E+01  +6.760E+01  -8.057E+02  -6.345E+01  +3.206E+03
  +9.38E+04  +6.13E+05  +2.22E+04  +1.168E+02  -2.832E+03  -2.266E+01  +6.760E+01  -8.057E+02  -6.345E+01  +3.206E+03

element # = 966     type =4-n tetrahedron
 XX         YY         ZZ         SIGXX       SIGYY       SIGZZ       TAUXY       TAUYZ       TAUZX       SIGV
  +5.80E+04  +5.33E+05  +6.63E+04  +4.985E+02  -2.336E+02  +2.092E+02  +6.418E+01  -1.797E+03  +7.742E+02  +3.451E+03
  +5.57E+04  +5.27E+05  +9.92E+04  +4.985E+02  -2.336E+02  +2.092E+02  +6.418E+01  -1.797E+03  +7.742E+02  +3.451E+03
  +5.28E+04  +5.54E+05  +8.56E+04  +4.985E+02  -2.336E+02  +2.092E+02  +6.418E+01  -1.797E+03  +7.742E+02  +3.451E+03
  +7.48E+04  +5.44E+05  +8.28E+04  +4.985E+02  -2.336E+02  +2.092E+02  +6.418E+01  -1.797E+03  +7.742E+02  +3.451E+03

element # = 967     type =4-n tetrahedron
 XX         YY         ZZ         SIGXX       SIGYY       SIGZZ       TAUXY       TAUYZ       TAUZX       SIGV
  +1.93E+05  +6.05E+05  +3.62E+04  +3.131E+02  -2.581E+03  +4.070E+02  -3.640E+02  -8.140E+02  +4.872E+01  +3.324E+03
  +1.93E+05  +6.16E+05  +1.38E+04  +3.131E+02  -2.581E+03  +4.070E+02  -3.640E+02  -8.140E+02  +4.872E+01  +3.324E+03
  +1.93E+05  +6.27E+05  +3.62E+04  +3.131E+02  -2.581E+03  +4.070E+02  -3.640E+02  -8.140E+02  +4.872E+01  +3.324E+03
  +1.71E+05  +6.05E+05  +1.38E+04  +3.131E+02  -2.581E+03  +4.070E+02  -3.640E+02  -8.140E+02  +4.872E+01  +3.324E+03

element # = 968     type =4-n tetrahedron
 XX         YY         ZZ         SIGXX       SIGYY       SIGZZ       TAUXY       TAUYZ       TAUZX       SIGV
  +1.86E+05  +3.30E+05  +1.93E+05  +7.563E+02  +1.512E+04  -2.233E+02  +7.105E+02  -1.394E+03  +7.080E+02  +1.518E+04
  +1.86E+05  +3.19E+05  +1.71E+05  +7.563E+02  +1.512E+04  -2.233E+02  +7.105E+02  -1.394E+03  +7.080E+02  +1.518E+04
  +1.64E+05  +3.40E+05  +1.93E+05  +7.563E+02  +1.512E+04  -2.233E+02  +7.105E+02  -1.394E+03  +7.080E+02  +1.518E+04
  +1.64E+05  +3.19E+05  +1.93E+05  +7.563E+02  +1.512E+04  -2.233E+02  +7.105E+02  -1.394E+03  +7.080E+02  +1.518E+04

element # = 969     type =4-n tetrahedron
 XX         YY         ZZ         SIGXX       SIGYY       SIGZZ       TAUXY       TAUYZ       TAUZX       SIGV
  +1.41E+05  +8.28E+05  +8.58E+03  -1.480E+02  -1.187E+03  -2.799E+02  +1.762E+01  -2.861E+02  -6.152E+01  +1.103E+03
  +1.19E+05  +8.17E+05  +8.58E+03  -1.480E+02  -1.187E+03  -2.799E+02  +1.762E+01  -2.861E+02  -6.152E+01  +1.103E+03
  +1.36E+05  +8.34E+05  +3.63E+04  -1.480E+02  -1.187E+03  -2.799E+02  +1.762E+01  -2.861E+02  -6.152E+01  +1.103E+03
  +1.41E+05  +8.06E+05  +8.58E+03  -1.480E+02  -1.187E+03  -2.799E+02  +1.762E+01  -2.861E+02  -6.152E+01  +1.103E+03

element # = 970     type =4-n tetrahedron
 XX         YY         ZZ         SIGXX       SIGYY       SIGZZ       TAUXY       TAUYZ       TAUZX       SIGV
  +1.09E+05  +7.63E+05  +5.48E+04  +1.961E+02  -6.405E+02  +3.449E+02  -1.395E+01  -6.246E+02  -9.077E+00  +1.421E+03
  +7.77E+04  +7.60E+05  +4.09E+04  +1.961E+02  -6.405E+02  +3.449E+02  -1.395E+01  -6.246E+02  -9.077E+00  +1.421E+03
  +9.54E+04  +7.65E+05  +2.39E+04  +1.961E+02  -6.405E+02  +3.449E+02  -1.395E+01  -6.246E+02  -9.077E+00  +1.421E+03
  +8.40E+04  +7.78E+05  +5.33E+04  +1.961E+02  -6.405E+02  +3.449E+02  -1.395E+01  -6.246E+02  -9.077E+00  +1.421E+03

element # = 971     type =4-n tetrahedron
 XX         YY         ZZ         SIGXX       SIGYY       SIGZZ       TAUXY       TAUYZ       TAUZX       SIGV
  +1.26E+04  +8.70E+05  +5.80E+03  -4.344E+01  -4.609E+02  -6.248E+01  +1.270E+01  -1.842E+02  +1.041E+01  +5.190E+02
  +1.26E+04  +8.91E+05  +5.80E+03  -4.344E+01  -4.609E+02  -6.248E+01  +1.270E+01  -1.842E+02  +1.041E+01  +5.190E+02
  +3.52E+04  +8.83E+05  +5.80E+03  -4.344E+01  -4.609E+02  -6.248E+01  +1.270E+01  -1.842E+02  +1.041E+01  +5.190E+02
  +3.09E+04  +8.77E+05  +2.46E+04  -4.344E+01  -4.609E+02  -6.248E+01  +1.270E+01  -1.842E+02  +1.041E+01  +5.190E+02

element # = 972     type =4-n tetrahedron
 XX         YY         ZZ         SIGXX       SIGYY       SIGZZ       TAUXY       TAUYZ       TAUZX       SIGV
  +1.85E+05  +5.91E+05  +3.65E+04  -5.390E+02  -4.767E+03  -8.163E+01  -3.407E+02  -8.562E+02  -9.461E+01  +4.753E+03
  +1.58E+05  +5.86E+05  +3.76E+04  -5.390E+02  -4.767E+03  -8.163E+01  -3.407E+02  -8.562E+02  -9.461E+01  +4.753E+03
  +1.85E+05  +5.80E+05  +1.42E+04  -5.390E+02  -4.767E+03  -8.163E+01  -3.407E+02  -8.562E+02  -9.461E+01  +4.753E+03
  +1.62E+05  +5.91E+05  +1.42E+04  -5.390E+02  -4.767E+03  -8.163E+01  -3.407E+02  -8.562E+02  -9.461E+01  +4.753E+03

element # = 973     type =4-n tetrahedron
 XX         YY         ZZ         SIGXX       SIGYY       SIGZZ       TAUXY       TAUYZ       TAUZX       SIGV
  +3.06E+04  +9.10E+05  +4.46E+04  -5.104E+01  -3.121E+02  -1.914E+02  +2.267E+00  -2.724E+02  -1.897E+01  +5.243E+02
  +1.58E+04  +8.94E+05  +5.14E+04  -5.104E+01  -3.121E+02  -1.914E+02  +2.267E+00  -2.724E+02  -1.897E+01  +5.243E+02
  +3.40E+04  +9.05E+05  +6.49E+04  -5.104E+01  -3.121E+02  -1.914E+02  +2.267E+00  -2.724E+02  -1.897E+01  +5.243E+02
  +3.41E+04  +8.88E+05  +4.76E+04  -5.104E+01  -3.121E+02  -1.914E+02  +2.267E+00  -2.724E+02  -1.897E+01  +5.243E+02

element # = 974     type =4-n tetrahedron
 XX         YY         ZZ         SIGXX       SIGYY       SIGZZ       TAUXY       TAUYZ       TAUZX       SIGV
  +8.30E+04  +6.77E+05  +5.83E+04  +1.814E+02  -1.050E+03  +8.040E+01  -1.206E+01  -5.806E+02  -6.768E+01  +1.558E+03
  +8.63E+04  +6.65E+05  +2.53E+04  +1.814E+02  -1.050E+03  +8.040E+01  -1.206E+01  -5.806E+02  -6.768E+01  +1.558E+03
  +5.91E+04  +6.61E+05  +4.35E+04  +1.814E+02  -1.050E+03  +8.040E+01  -1.206E+01  -5.806E+02  -6.768E+01  +1.558E+03
  +7.24E+04  +6.48E+05  +5.62E+04  +1.814E+02  -1.050E+03  +8.040E+01  -1.206E+01  -5.806E+02  -6.768E+01  +1.558E+03

element # = 975     type =4-n tetrahedron
 XX         YY         ZZ         SIGXX       SIGYY       SIGZZ       TAUXY       TAUYZ       TAUZX       SIGV
  +7.81E+04  +8.63E+05  +5.80E+03  +4.014E+01  -5.016E+02  -8.781E+00  +9.455E+01  -1.421E+02  +3.957E+01  +6.012E+02
  +5.58E+04  +8.52E+05  +5.80E+03  +4.014E+01  -5.016E+02  -8.781E+00  +9.455E+01  -1.421E+02  +3.957E+01  +6.012E+02
  +5.59E+04  +8.74E+05  +5.80E+03  +4.014E+01  -5.016E+02  -8.781E+00  +9.455E+01  -1.421E+02  +3.957E+01  +6.012E+02
  +5.16E+04  +8.68E+05  +2.46E+04  +4.014E+01  -5.016E+02  -8.781E+00  +9.455E+01  -1.421E+02  +3.957E+01  +6.012E+02

element # = 976     type =4-n tetrahedron
 XX         YY         ZZ         SIGXX       SIGYY       SIGZZ       TAUXY       TAUYZ       TAUZX       SIGV
  +7.90E+04  +2.21E+05  +4.08E+04  -6.054E+02  -1.502E+04  -7.988E+01  +1.666E+02  -1.612E+03  +6.423E+02  +1.499E+04
  +5.56E+04  +2.28E+05  +3.23E+04  -6.054E+02  -1.502E+04  -7.988E+01  +1.666E+02  -1.612E+03  +6.423E+02  +1.499E+04
  +6.09E+04  +2.19E+05  +1.40E+04  -6.054E+02  -1.502E+04  -7.988E+01  +1.666E+02  -1.612E+03  +6.423E+02  +1.499E+04
  +8.32E+04  +2.30E+05  +1.40E+04  -6.054E+02  -1.502E+04  -7.988E+01  +1.666E+02  -1.612E+03  +6.423E+02  +1.499E+04

element # = 977     type =4-n tetrahedron
 XX         YY         ZZ         SIGXX       SIGYY       SIGZZ       TAUXY       TAUYZ       TAUZX       SIGV
  +9.18E+04  +2.02E+05  +8.29E+03  -2.600E+03  -2.413E+04  -2.451E+03  +4.311E+02  -1.033E+03  -3.297E+02  +2.170E+04
  +8.75E+04  +2.15E+05  +3.51E+04  -2.600E+03  -2.413E+04  -2.451E+03  +4.311E+02  -1.033E+03  -3.297E+02  +2.170E+04
  +6.95E+04  +2.13E+05  +8.29E+03  -2.600E+03  -2.413E+04  -2.451E+03  +4.311E+02  -1.033E+03  -3.297E+02  +2.170E+04
  +9.18E+04  +2.24E+05  +8.29E+03  -2.600E+03  -2.413E+04  -2.451E+03  +4.311E+02  -1.033E+03  -3.297E+02  +2.170E+04

element # = 978     type =4-n tetrahedron
 XX         YY         ZZ         SIGXX       SIGYY       SIGZZ       TAUXY       TAUYZ       TAUZX       SIGV
  +1.91E+04  +2.37E+05  +5.68E+03  -1.279E+03  -2.007E+04  -1.953E+03  +5.749E+02  -1.374E+03  -5.002E+02  +1.866E+04
  +3.61E+04  +2.35E+05  +2.40E+04  -1.279E+03  -2.007E+04  -1.953E+03  +5.749E+02  -1.374E+03  -5.002E+02  +1.866E+04
  +4.15E+04  +2.47E+05  +5.68E+03  -1.279E+03  -2.007E+04  -1.953E+03  +5.749E+02  -1.374E+03  -5.002E+02  +1.866E+04
  +4.15E+04  +2.26E+05  +5.68E+03  -1.279E+03  -2.007E+04  -1.953E+03  +5.749E+02  -1.374E+03  -5.002E+02  +1.866E+04

element # = 979     type =4-n tetrahedron
 XX         YY         ZZ         SIGXX       SIGYY       SIGZZ       TAUXY       TAUYZ       TAUZX       SIGV
  +1.28E+04  +8.43E+05  +4.04E+04  +8.463E+01  -3.828E+02  +3.515E+01  +3.273E+01  -2.357E+02  -1.977E+01  +6.073E+02
  +1.28E+04  +8.52E+05  +1.79E+04  +8.463E+01  -3.828E+02  +3.515E+01  +3.273E+01  -2.357E+02  -1.977E+01  +6.073E+02
  +3.59E+04  +8.39E+05  +3.46E+04  +8.463E+01  -3.828E+02  +3.515E+01  +3.273E+01  -2.357E+02  -1.977E+01  +6.073E+02
  +3.10E+04  +8.60E+05  +3.67E+04  +8.463E+01  -3.828E+02  +3.515E+01  +3.273E+01  -2.357E+02  -1.977E+01  +6.073E+02

element # = 980     type =4-n tetrahedron
 XX         YY         ZZ         SIGXX       SIGYY       SIGZZ       TAUXY       TAUYZ       TAUZX       SIGV
  +3.78E+04  +3.91E+05  +1.45E+05  -2.877E+02  +3.712E+03  -5.460E+02  +9.305E+01  -1.669E+03  -2.540E+02  +5.067E+03
  +1.37E+04  +3.99E+05  +1.45E+05  -2.877E+02  +3.712E+03  -5.460E+02  +9.305E+01  -1.669E+03  -2.540E+02  +5.067E+03
  +1.37E+04  +3.87E+05  +1.31E+05  -2.877E+02  +3.712E+03  -5.460E+02  +9.305E+01  -1.669E+03  -2.540E+02  +5.067E+03
  +3.40E+04  +3.99E+05  +1.19E+05  -2.877E+02  +3.712E+03  -5.460E+02  +9.305E+01  -1.669E+03  -2.540E+02  +5.067E+03

element # = 981     type =4-n tetrahedron
 XX         YY         ZZ         SIGXX       SIGYY       SIGZZ       TAUXY       TAUYZ       TAUZX       SIGV
  +5.82E+04  +4.05E+05  +1.45E+05  +1.058E+03  +5.904E+03  -5.415E+01  -1.006E+03  -1.730E+03  +2.890E+02  +6.509E+03
  +5.38E+04  +4.26E+05  +1.47E+05  +1.058E+03  +5.904E+03  -5.415E+01  -1.006E+03  -1.730E+03  +2.890E+02  +6.509E+03
  +5.44E+04  +4.13E+05  +1.19E+05  +1.058E+03  +5.904E+03  -5.415E+01  -1.006E+03  -1.730E+03  +2.890E+02  +6.509E+03
  +8.04E+04  +4.32E+05  +1.27E+05  +1.058E+03  +5.904E+03  -5.415E+01  -1.006E+03  -1.730E+03  +2.890E+02  +6.509E+03

element # = 982     type =4-n tetrahedron
 XX         YY         ZZ         SIGXX       SIGYY       SIGZZ       TAUXY       TAUYZ       TAUZX       SIGV
  +5.05E+03  +3.65E+05  +1.01E+05  -1.077E+02  +3.139E+03  -7.837E+01  -1.028E+02  -1.909E+03  +7.699E+02  +4.815E+03
  +5.05E+03  +3.69E+05  +1.19E+05  -1.077E+02  +3.139E+03  -7.837E+01  -1.028E+02  -1.909E+03  +7.699E+02  +4.815E+03
  +2.14E+04  +3.60E+05  +1.19E+05  -1.077E+02  +3.139E+03  -7.837E+01  -1.028E+02  -1.909E+03  +7.699E+02  +4.815E+03
  +5.05E+03  +3.51E+05  +1.17E+05  -1.077E+02  +3.139E+03  -7.837E+01  -1.028E+02  -1.909E+03  +7.699E+02  +4.815E+03

element # = 983     type =4-n tetrahedron
 XX         YY         ZZ         SIGXX       SIGYY       SIGZZ       TAUXY       TAUYZ       TAUZX       SIGV
  +5.64E+03  +8.51E+05  +4.22E+04  +3.724E+01  -3.791E+02  -1.554E+01  +3.756E+01  -2.647E+02  +1.526E+01  +6.077E+02
  +5.64E+03  +8.74E+05  +4.23E+04  +3.724E+01  -3.791E+02  -1.554E+01  +3.756E+01  -2.647E+02  +1.526E+01  +6.077E+02
  +5.64E+03  +8.61E+05  +1.97E+04  +3.724E+01  -3.791E+02  -1.554E+01  +3.756E+01  -2.647E+02  +1.526E+01  +6.077E+02
  +2.39E+04  +8.68E+05  +3.85E+04  +3.724E+01  -3.791E+02  -1.554E+01  +3.756E+01  -2.647E+02  +1.526E+01  +6.077E+02

element # = 984     type =4-n tetrahedron
 XX         YY         ZZ         SIGXX       SIGYY       SIGZZ       TAUXY       TAUYZ       TAUZX       SIGV
  +3.52E+04  +5.88E+05  +1.86E+05  -4.772E+01  +4.092E+03  -4.382E+02  -2.017E+01  -7.566E+02  -1.191E+00  +4.541E+03
  +1.28E+04  +5.88E+05  +1.63E+05  -4.772E+01  +4.092E+03  -4.382E+02  -2.017E+01  -7.566E+02  -1.191E+00  +4.541E+03
  +1.28E+04  +5.78E+05  +1.86E+05  -4.772E+01  +4.092E+03  -4.382E+02  -2.017E+01  -7.566E+02  -1.191E+00  +4.541E+03
  +3.20E+04  +5.77E+05  +1.61E+05  -4.772E+01  +4.092E+03  -4.382E+02  -2.017E+01  -7.566E+02  -1.191E+00  +4.541E+03

element # = 985     type =4-n tetrahedron
 XX         YY         ZZ         SIGXX       SIGYY       SIGZZ       TAUXY       TAUYZ       TAUZX       SIGV
  +8.65E+04  +2.93E+05  +1.69E+05  +2.653E+02  +1.489E+04  -8.019E+02  +1.936E+02  -2.041E+03  -8.256E+02  +1.567E+04
  +6.92E+04  +3.05E+05  +1.93E+05  +2.653E+02  +1.489E+04  -8.019E+02  +1.936E+02  -2.041E+03  -8.256E+02  +1.567E+04
  +9.15E+04  +3.16E+05  +1.93E+05  +2.653E+02  +1.489E+04  -8.019E+02  +1.936E+02  -2.041E+03  -8.256E+02  +1.567E+04
  +9.15E+04  +2.95E+05  +1.93E+05  +2.653E+02  +1.489E+04  -8.019E+02  +1.936E+02  -2.041E+03  -8.256E+02  +1.567E+04

element # = 986     type =4-n tetrahedron
 XX         YY         ZZ         SIGXX       SIGYY       SIGZZ       TAUXY       TAUYZ       TAUZX       SIGV
  +5.10E+04  +3.46E+05  +1.49E+05  +9.353E+02  +7.932E+03  -1.592E+03  -1.683E+02  -1.982E+03  +6.675E+02  +9.287E+03
  +5.55E+04  +3.71E+05  +1.49E+05  +9.353E+02  +7.932E+03  -1.592E+03  -1.683E+02  -1.982E+03  +6.675E+02  +9.287E+03
  +4.78E+04  +3.58E+05  +1.34E+05  +9.353E+02  +7.932E+03  -1.592E+03  -1.683E+02  -1.982E+03  +6.675E+02  +9.287E+03
  +7.32E+04  +3.56E+05  +1.37E+05  +9.353E+02  +7.932E+03  -1.592E+03  -1.683E+02  -1.982E+03  +6.675E+02  +9.287E+03

element # = 987     type =4-n tetrahedron
 XX         YY         ZZ         SIGXX       SIGYY       SIGZZ       TAUXY       TAUYZ       TAUZX       SIGV
  +1.93E+05  +2.93E+05  +1.64E+05  -1.147E+03  +7.407E+03  -1.367E+03  +1.117E+03  -6.367E+02  -6.276E+02  +9.014E+03
  +1.71E+05  +2.71E+05  +1.86E+05  -1.147E+03  +7.407E+03  -1.367E+03  +1.117E+03  -6.367E+02  -6.276E+02  +9.014E+03
  +1.93E+05  +2.82E+05  +1.86E+05  -1.147E+03  +7.407E+03  -1.367E+03  +1.117E+03  -6.367E+02  -6.276E+02  +9.014E+03
  +1.93E+05  +2.71E+05  +1.64E+05  -1.147E+03  +7.407E+03  -1.367E+03  +1.117E+03  -6.367E+02  -6.276E+02  +9.014E+03

element # = 988     type =4-n tetrahedron
 XX         YY         ZZ         SIGXX       SIGYY       SIGZZ       TAUXY       TAUYZ       TAUZX       SIGV
  +3.96E+04  +8.58E+05  +1.58E+05  +2.665E+01  +5.524E+02  -3.815E+02  -1.434E+01  -3.152E+02  -3.965E+01  +9.803E+02
  +4.73E+04  +8.61E+05  +1.40E+05  +2.665E+01  +5.524E+02  -3.815E+02  -1.434E+01  -3.152E+02  -3.965E+01  +9.803E+02
  +2.20E+04  +8.43E+05  +1.49E+05  +2.665E+01  +5.524E+02  -3.815E+02  -1.434E+01  -3.152E+02  -3.965E+01  +9.803E+02
  +5.05E+04  +8.31E+05  +1.49E+05  +2.665E+01  +5.524E+02  -3.815E+02  -1.434E+01  -3.152E+02  -3.965E+01  +9.803E+02

element # = 989     type =4-n tetrahedron
 XX         YY         ZZ         SIGXX       SIGYY       SIGZZ       TAUXY       TAUYZ       TAUZX       SIGV
  +9.24E+04  +2.68E+05  +9.24E+04  -7.739E+02  -1.974E+03  +1.542E+03  +3.335E+02  -4.578E+03  -4.346E+02  +8.565E+03
  +9.16E+04  +2.33E+05  +7.94E+04  -7.739E+02  -1.974E+03  +1.542E+03  +3.335E+02  -4.578E+03  -4.346E+02  +8.565E+03
  +7.17E+04  +2.46E+05  +9.87E+04  -7.739E+02  -1.974E+03  +1.542E+03  +3.335E+02  -4.578E+03  -4.346E+02  +8.565E+03
  +1.15E+05  +2.40E+05  +1.10E+05  -7.739E+02  -1.974E+03  +1.542E+03  +3.335E+02  -4.578E+03  -4.346E+02  +8.565E+03

element # = 990     type =4-n tetrahedron
 XX         YY         ZZ         SIGXX       SIGYY       SIGZZ       TAUXY       TAUYZ       TAUZX       SIGV
  +6.43E+04  +9.17E+05  +4.95E+04  -7.769E+01  -3.185E+02  -2.064E+02  +1.871E+01  -2.726E+02  -2.899E+00  +5.173E+02
  +4.55E+04  +8.93E+05  +4.72E+04  -7.769E+01  -3.185E+02  -2.064E+02  +1.871E+01  -2.726E+02  -2.899E+00  +5.173E+02
  +4.21E+04  +9.16E+05  +4.42E+04  -7.769E+01  -3.185E+02  -2.064E+02  +1.871E+01  -2.726E+02  -2.899E+00  +5.173E+02
  +4.54E+04  +9.11E+05  +6.45E+04  -7.769E+01  -3.185E+02  -2.064E+02  +1.871E+01  -2.726E+02  -2.899E+00  +5.173E+02

element # = 991     type =4-n tetrahedron
 XX         YY         ZZ         SIGXX       SIGYY       SIGZZ       TAUXY       TAUYZ       TAUZX       SIGV
  +9.86E+04  +8.01E+05  +7.47E+04  -8.591E+01  -6.016E+02  -3.736E+02  +6.387E+00  -5.222E+02  -1.795E+01  +1.010E+03
  +1.27E+05  +8.26E+05  +7.30E+04  -8.591E+01  -6.016E+02  -3.736E+02  +6.387E+00  -5.222E+02  -1.795E+01  +1.010E+03
  +1.24E+05  +7.85E+05  +7.61E+04  -8.591E+01  -6.016E+02  -3.736E+02  +6.387E+00  -5.222E+02  -1.795E+01  +1.010E+03
  +1.22E+05  +8.16E+05  +1.04E+05  -8.591E+01  -6.016E+02  -3.736E+02  +6.387E+00  -5.222E+02  -1.795E+01  +1.010E+03

element # = 992     type =4-n tetrahedron
 XX         YY         ZZ         SIGXX       SIGYY       SIGZZ       TAUXY       TAUYZ       TAUZX       SIGV
  +1.67E+05  +5.55E+05  +1.32E+05  -1.105E+03  -1.011E+03  -8.280E+02  +2.317E+01  -1.254E+03  -1.956E+02  +2.213E+03
  +1.92E+05  +5.39E+05  +1.13E+05  -1.105E+03  -1.011E+03  -8.280E+02  +2.317E+01  -1.254E+03  -1.956E+02  +2.213E+03
  +1.92E+05  +5.49E+05  +1.35E+05  -1.105E+03  -1.011E+03  -8.280E+02  +2.317E+01  -1.254E+03  -1.956E+02  +2.213E+03
  +1.92E+05  +5.60E+05  +1.13E+05  -1.105E+03  -1.011E+03  -8.280E+02  +2.317E+01  -1.254E+03  -1.956E+02  +2.213E+03

element # = 993     type =4-n tetrahedron
 XX         YY         ZZ         SIGXX       SIGYY       SIGZZ       TAUXY       TAUYZ       TAUZX       SIGV
  +1.28E+05  +5.46E+05  +1.51E+05  -3.404E+02  +2.417E+03  -1.259E+03  -4.204E+01  -8.083E+02  -1.422E+02  +3.606E+03
  +1.09E+05  +5.29E+05  +1.77E+05  -3.404E+02  +2.417E+03  -1.259E+03  -4.204E+01  -8.083E+02  -1.422E+02  +3.606E+03
  +1.23E+05  +5.21E+05  +1.50E+05  -3.404E+02  +2.417E+03  -1.259E+03  -4.204E+01  -8.083E+02  -1.422E+02  +3.606E+03
  +1.02E+05  +5.39E+05  +1.53E+05  -3.404E+02  +2.417E+03  -1.259E+03  -4.204E+01  -8.083E+02  -1.422E+02  +3.606E+03

element # = 994     type =4-n tetrahedron
 XX         YY         ZZ         SIGXX       SIGYY       SIGZZ       TAUXY       TAUYZ       TAUZX       SIGV
  +1.00E+05  +9.35E+05  +1.69E+05  -1.048E+02  +6.907E+01  -5.566E+02  -1.736E+01  -1.462E+02  -1.577E+01  +6.154E+02
  +1.21E+05  +9.04E+05  +1.61E+05  -1.048E+02  +6.907E+01  -5.566E+02  -1.736E+01  -1.462E+02  -1.577E+01  +6.154E+02
  +9.03E+04  +9.15E+05  +1.67E+05  -1.048E+02  +6.907E+01  -5.566E+02  -1.736E+01  -1.462E+02  -1.577E+01  +6.154E+02
  +1.02E+05  +9.15E+05  +1.84E+05  -1.048E+02  +6.907E+01  -5.566E+02  -1.736E+01  -1.462E+02  -1.577E+01  +6.154E+02

element # = 995     type =4-n tetrahedron
 XX         YY         ZZ         SIGXX       SIGYY       SIGZZ       TAUXY       TAUYZ       TAUZX       SIGV
  +5.17E+04  +2.43E+05  +8.09E+04  -7.500E+02  -1.008E+04  -1.018E+03  -2.987E+02  -3.046E+03  +1.004E+03  +1.076E+04
  +4.82E+04  +2.37E+05  +5.31E+04  -7.500E+02  -1.008E+04  -1.018E+03  -2.987E+02  -3.046E+03  +1.004E+03  +1.076E+04
  +7.16E+04  +2.30E+05  +6.16E+04  -7.500E+02  -1.008E+04  -1.018E+03  -2.987E+02  -3.046E+03  +1.004E+03  +1.076E+04
  +5.37E+04  +2.55E+05  +5.60E+04  -7.500E+02  -1.008E+04  -1.018E+03  -2.987E+02  -3.046E+03  +1.004E+03  +1.076E+04

element # = 996     type =4-n tetrahedron
 XX         YY         ZZ         SIGXX       SIGYY       SIGZZ       TAUXY       TAUYZ       TAUZX       SIGV
  +7.98E+04  +2.73E+05  +8.12E+04  -3.279E+02  -4.479E+03  +1.659E+02  +1.599E+03  -2.254E+03  +2.119E+02  +6.524E+03
  +7.90E+04  +2.39E+05  +6.82E+04  -3.279E+02  -4.479E+03  +1.659E+02  +1.599E+03  -2.254E+03  +2.119E+02  +6.524E+03
  +6.12E+04  +2.64E+05  +6.26E+04  -3.279E+02  -4.479E+03  +1.659E+02  +1.599E+03  -2.254E+03  +2.119E+02  +6.524E+03
  +5.92E+04  +2.51E+05  +8.75E+04  -3.279E+02  -4.479E+03  +1.659E+02  +1.599E+03  -2.254E+03  +2.119E+02  +6.524E+03

element # = 997     type =4-n tetrahedron
 XX         YY         ZZ         SIGXX       SIGYY       SIGZZ       TAUXY       TAUYZ       TAUZX       SIGV
  +1.20E+05  +9.41E+05  +3.66E+04  +1.708E+01  -1.337E+02  -6.650E+01  +1.632E+01  -7.711E+01  -1.636E+01  +1.912E+02
  +1.03E+05  +9.26E+05  +1.36E+04  +1.708E+01  -1.337E+02  -6.650E+01  +1.632E+01  -7.711E+01  -1.636E+01  +1.912E+02
  +1.03E+05  +9.47E+05  +1.36E+04  +1.708E+01  -1.337E+02  -6.650E+01  +1.632E+01  -7.711E+01  -1.636E+01  +1.912E+02
  +9.51E+04  +9.33E+05  +3.47E+04  +1.708E+01  -1.337E+02  -6.650E+01  +1.632E+01  -7.711E+01  -1.636E+01  +1.912E+02

element # = 998     type =4-n tetrahedron
 XX         YY         ZZ         SIGXX       SIGYY       SIGZZ       TAUXY       TAUYZ       TAUZX       SIGV
  +3.69E+04  +1.21E+05  +1.87E+05  +7.123E+02  +1.880E+04  -1.338E+03  -3.678E+02  -1.193E+03  +7.545E+00  +1.932E+04
  +1.44E+04  +1.23E+05  +1.65E+05  +7.123E+02  +1.880E+04  -1.338E+03  -3.678E+02  -1.193E+03  +7.545E+00  +1.932E+04
  +3.83E+04  +1.34E+05  +1.68E+05  +7.123E+02  +1.880E+04  -1.338E+03  -3.678E+02  -1.193E+03  +7.545E+00  +1.932E+04
  +1.44E+04  +1.35E+05  +1.87E+05  +7.123E+02  +1.880E+04  -1.338E+03  -3.678E+02  -1.193E+03  +7.545E+00  +1.932E+04

element # = 999     type =4-n tetrahedron
 XX         YY         ZZ         SIGXX       SIGYY       SIGZZ       TAUXY       TAUYZ       TAUZX       SIGV
  +2.93E+04  +5.95E+05  +1.93E+05  +2.835E+02  +5.569E+03  -2.022E+02  -1.133E+02  -7.710E+02  +1.879E+02  +5.716E+03
  +6.91E+03  +5.95E+05  +1.71E+05  +2.835E+02  +5.569E+03  -2.022E+02  -1.133E+02  -7.710E+02  +1.879E+02  +5.716E+03
  +6.91E+03  +6.06E+05  +1.93E+05  +2.835E+02  +5.569E+03  -2.022E+02  -1.133E+02  -7.710E+02  +1.879E+02  +5.716E+03
  +6.91E+03  +5.85E+05  +1.93E+05  +2.835E+02  +5.569E+03  -2.022E+02  -1.133E+02  -7.710E+02  +1.879E+02  +5.716E+03

element # = 1000     type =4-n tetrahedron
 XX         YY         ZZ         SIGXX       SIGYY       SIGZZ       TAUXY       TAUYZ       TAUZX       SIGV
  +1.40E+05  +5.65E+05  +1.66E+05  +7.346E+02  +6.636E+03  +6.659E+01  -2.852E+02  -9.988E+02  -1.873E+02  +6.523E+03
  +1.20E+05  +5.70E+05  +1.92E+05  +7.346E+02  +6.636E+03  +6.659E+01  -2.852E+02  -9.988E+02  -1.873E+02  +6.523E+03
  +1.42E+05  +5.81E+05  +1.92E+05  +7.346E+02  +6.636E+03  +6.659E+01  -2.852E+02  -9.988E+02  -1.873E+02  +6.523E+03
  +1.42E+05  +5.59E+05  +1.92E+05  +7.346E+02  +6.636E+03  +6.659E+01  -2.852E+02  -9.988E+02  -1.873E+02  +6.523E+03

element # = 1001     type =4-n tetrahedron
 XX         YY         ZZ         SIGXX       SIGYY       SIGZZ       TAUXY       TAUYZ       TAUZX       SIGV
  +1.86E+05  +6.12E+05  +1.87E+05  +1.807E+02  +4.048E+03  -3.833E+02  -9.011E+01  -7.361E+02  +4.951E+00  +4.371E+03
  +1.65E+05  +6.10E+05  +1.66E+05  +1.807E+02  +4.048E+03  -3.833E+02  -9.011E+01  -7.361E+02  +4.951E+00  +4.371E+03
  +1.64E+05  +6.01E+05  +1.87E+05  +1.807E+02  +4.048E+03  -3.833E+02  -9.011E+01  -7.361E+02  +4.951E+00  +4.371E+03
  +1.86E+05  +6.01E+05  +1.64E+05  +1.807E+02  +4.048E+03  -3.833E+02  -9.011E+01  -7.361E+02  +4.951E+00  +4.371E+03

element # = 1002     type =4-n tetrahedron
 XX         YY         ZZ         SIGXX       SIGYY       SIGZZ       TAUXY       TAUYZ       TAUZX       SIGV
  +1.31E+05  +9.94E+05  +1.59E+05  -4.130E+01  +1.727E+01  -4.833E+02  -1.862E+00  -2.795E+01  +4.723E+00  +4.765E+02
  +1.07E+05  +9.74E+05  +1.68E+05  -4.130E+01  +1.727E+01  -4.833E+02  -1.862E+00  -2.795E+01  +4.723E+00  +4.765E+02
  +1.09E+05  +9.94E+05  +1.63E+05  -4.130E+01  +1.727E+01  -4.833E+02  -1.862E+00  -2.795E+01  +4.723E+00  +4.765E+02
  +1.18E+05  +9.94E+05  +1.83E+05  -4.130E+01  +1.727E+01  -4.833E+02  -1.862E+00  -2.795E+01  +4.723E+00  +4.765E+02

element # = 1003     type =4-n tetrahedron
 XX         YY         ZZ         SIGXX       SIGYY       SIGZZ       TAUXY       TAUYZ       TAUZX       SIGV
  +1.28E+05  +7.29E+05  +1.57E+05  -3.932E+02  +6.670E+02  -7.867E+02  -1.240E+02  -7.181E+02  -6.502E+00  +1.814E+03
  +1.38E+05  +7.01E+05  +1.83E+05  -3.932E+02  +6.670E+02  -7.867E+02  -1.240E+02  -7.181E+02  -6.502E+00  +1.814E+03
  +1.32E+05  +6.94E+05  +1.55E+05  -3.932E+02  +6.670E+02  -7.867E+02  -1.240E+02  -7.181E+02  -6.502E+00  +1.814E+03
  +1.16E+05  +7.12E+05  +1.83E+05  -3.932E+02  +6.670E+02  -7.867E+02  -1.240E+02  -7.181E+02  -6.502E+00  +1.814E+03

element # = 1004     type =4-n tetrahedron
 XX         YY         ZZ         SIGXX       SIGYY       SIGZZ       TAUXY       TAUYZ       TAUZX       SIGV
  +1.33E+04  +4.83E+05  +1.47E+05  +3.294E+00  +4.722E+03  +5.582E+02  +5.330E+01  -2.013E+03  +4.062E+02  +5.711E+03
  +2.94E+04  +4.62E+05  +1.32E+05  +3.294E+00  +4.722E+03  +5.582E+02  +5.330E+01  -2.013E+03  +4.062E+02  +5.711E+03
  +1.33E+04  +4.62E+05  +1.48E+05  +3.294E+00  +4.722E+03  +5.582E+02  +5.330E+01  -2.013E+03  +4.062E+02  +5.711E+03
  +4.01E+04  +4.75E+05  +1.52E+05  +3.294E+00  +4.722E+03  +5.582E+02  +5.330E+01  -2.013E+03  +4.062E+02  +5.711E+03

element # = 1005     type =4-n tetrahedron
 XX         YY         ZZ         SIGXX       SIGYY       SIGZZ       TAUXY       TAUYZ       TAUZX       SIGV
  +1.34E+05  +6.89E+05  +1.91E+05  +2.513E+02  +2.955E+03  -2.022E+02  +5.997E+01  -6.151E+02  +2.174E+02  +3.167E+03
  +1.29E+05  +6.82E+05  +1.63E+05  +2.513E+02  +2.955E+03  -2.022E+02  +5.997E+01  -6.151E+02  +2.174E+02  +3.167E+03
  +1.12E+05  +7.00E+05  +1.91E+05  +2.513E+02  +2.955E+03  -2.022E+02  +5.997E+01  -6.151E+02  +2.174E+02  +3.167E+03
  +1.12E+05  +6.78E+05  +1.91E+05  +2.513E+02  +2.955E+03  -2.022E+02  +5.997E+01  -6.151E+02  +2.174E+02  +3.167E+03

element # = 1006     type =4-n tetrahedron
 XX         YY         ZZ         SIGXX       SIGYY       SIGZZ       TAUXY       TAUYZ       TAUZX       SIGV
  +1.43E+05  +5.84E+05  +8.07E+04  +1.158E+03  +2.394E+03  +9.185E+02  +1.909E+02  -1.064E+03  +2.290E+02  +2.355E+03
  +1.71E+05  +5.78E+05  +1.02E+05  +1.158E+03  +2.394E+03  +9.185E+02  +1.909E+02  -1.064E+03  +2.290E+02  +2.355E+03
  +1.46E+05  +5.73E+05  +1.21E+05  +1.158E+03  +2.394E+03  +9.185E+02  +1.909E+02  -1.064E+03  +2.290E+02  +2.355E+03
  +1.28E+05  +5.96E+05  +1.11E+05  +1.158E+03  +2.394E+03  +9.185E+02  +1.909E+02  -1.064E+03  +2.290E+02  +2.355E+03

element # = 1007     type =4-n tetrahedron
 XX         YY         ZZ         SIGXX       SIGYY       SIGZZ       TAUXY       TAUYZ       TAUZX       SIGV
  +1.86E+04  +9.16E+05  +1.50E+05  +2.371E+01  +2.282E+02  -2.699E+02  +3.656E+01  -3.138E+02  -1.883E+01  +6.990E+02
  +4.39E+03  +9.14E+05  +1.22E+05  +2.371E+01  +2.282E+02  -2.699E+02  +3.656E+01  -3.138E+02  -1.883E+01  +6.990E+02
  +4.39E+03  +9.28E+05  +1.43E+05  +2.371E+01  +2.282E+02  -2.699E+02  +3.656E+01  -3.138E+02  -1.883E+01  +6.990E+02
  +4.39E+03  +9.02E+05  +1.44E+05  +2.371E+01  +2.282E+02  -2.699E+02  +3.656E+01  -3.138E+02  -1.883E+01  +6.990E+02

element # = 1008     type =4-n tetrahedron
 XX         YY         ZZ         SIGXX       SIGYY       SIGZZ       TAUXY       TAUYZ       TAUZX       SIGV
  +8.61E+04  +3.00E+05  +6.55E+03  -1.363E+03  -1.526E+04  -1.209E+03  +1.438E+01  -1.019E+03  -1.963E+02  +1.409E+04
  +6.35E+04  +3.16E+05  +2.77E+04  -1.363E+03  -1.526E+04  -1.209E+03  +1.438E+01  -1.019E+03  -1.963E+02  +1.409E+04
  +6.37E+04  +3.11E+05  +6.55E+03  -1.363E+03  -1.526E+04  -1.209E+03  +1.438E+01  -1.019E+03  -1.963E+02  +1.409E+04
  +8.61E+04  +3.21E+05  +6.55E+03  -1.363E+03  -1.526E+04  -1.209E+03  +1.438E+01  -1.019E+03  -1.963E+02  +1.409E+04

element # = 1009     type =4-n tetrahedron
 XX         YY         ZZ         SIGXX       SIGYY       SIGZZ       TAUXY       TAUYZ       TAUZX       SIGV
  +1.48E+05  +5.70E+05  +7.29E+04  -1.152E+03  -3.231E+03  -1.143E+03  +3.891E+01  -1.040E+03  +1.980E+02  +2.777E+03
  +1.75E+05  +5.64E+05  +9.42E+04  -1.152E+03  -3.231E+03  -1.143E+03  +3.891E+01  -1.040E+03  +1.980E+02  +2.777E+03
  +1.48E+05  +5.38E+05  +7.79E+04  -1.152E+03  -3.231E+03  -1.143E+03  +3.891E+01  -1.040E+03  +1.980E+02  +2.777E+03
  +1.50E+05  +5.59E+05  +1.13E+05  -1.152E+03  -3.231E+03  -1.143E+03  +3.891E+01  -1.040E+03  +1.980E+02  +2.777E+03

element # = 1010     type =4-n tetrahedron
 XX         YY         ZZ         SIGXX       SIGYY       SIGZZ       TAUXY       TAUYZ       TAUZX       SIGV
  +7.93E+04  +2.92E+05  +1.31E+04  +2.172E+03  -7.181E+03  +1.358E+03  +1.447E+03  -1.152E+02  +4.535E+02  +9.352E+03
  +5.66E+04  +3.08E+05  +3.43E+04  +2.172E+03  -7.181E+03  +1.358E+03  +1.447E+03  -1.152E+02  +4.535E+02  +9.352E+03
  +5.71E+04  +2.86E+05  +3.43E+04  +2.172E+03  -7.181E+03  +1.358E+03  +1.447E+03  -1.152E+02  +4.535E+02  +9.352E+03
  +5.69E+04  +3.02E+05  +1.31E+04  +2.172E+03  -7.181E+03  +1.358E+03  +1.447E+03  -1.152E+02  +4.535E+02  +9.352E+03

element # = 1011     type =4-n tetrahedron
 XX         YY         ZZ         SIGXX       SIGYY       SIGZZ       TAUXY       TAUYZ       TAUZX       SIGV
  +6.04E+03  +3.45E+05  +1.55E+05  +2.019E+02  +9.381E+03  -2.136E+02  -1.876E+02  -2.018E+03  +9.082E+02  +1.015E+04
  +6.04E+03  +3.24E+05  +1.55E+05  +2.019E+02  +9.381E+03  -2.136E+02  -1.876E+02  -2.018E+03  +9.082E+02  +1.015E+04
  +2.56E+04  +3.33E+05  +1.54E+05  +2.019E+02  +9.381E+03  -2.136E+02  -1.876E+02  -2.018E+03  +9.082E+02  +1.015E+04
  +6.04E+03  +3.36E+05  +1.37E+05  +2.019E+02  +9.381E+03  -2.136E+02  -1.876E+02  -2.018E+03  +9.082E+02  +1.015E+04

element # = 1012     type =4-n tetrahedron
 XX         YY         ZZ         SIGXX       SIGYY       SIGZZ       TAUXY       TAUYZ       TAUZX       SIGV
  +8.51E+04  +2.89E+05  +2.54E+04  +6.738E+02  -7.876E+03  +8.989E+02  -1.894E+02  -1.819E+03  +6.136E+01  +9.226E+03
  +6.24E+04  +3.05E+05  +4.66E+04  +6.738E+02  -7.876E+03  +8.989E+02  -1.894E+02  -1.819E+03  +6.136E+01  +9.226E+03
  +8.15E+04  +2.94E+05  +6.52E+04  +6.738E+02  -7.876E+03  +8.989E+02  -1.894E+02  -1.819E+03  +6.136E+01  +9.226E+03
  +6.30E+04  +2.84E+05  +4.66E+04  +6.738E+02  -7.876E+03  +8.989E+02  -1.894E+02  -1.819E+03  +6.136E+01  +9.226E+03

element # = 1013     type =4-n tetrahedron
 XX         YY         ZZ         SIGXX       SIGYY       SIGZZ       TAUXY       TAUYZ       TAUZX       SIGV
  +7.03E+03  +4.01E+05  +3.29E+04  -1.473E+03  -1.113E+04  -2.661E+02  +3.446E+02  -1.214E+03  +6.131E+02  +1.060E+04
  +2.98E+04  +3.99E+05  +3.04E+04  -1.473E+03  -1.113E+04  -2.661E+02  +3.446E+02  -1.214E+03  +6.131E+02  +1.060E+04
  +7.03E+03  +4.14E+05  +1.21E+04  -1.473E+03  -1.113E+04  -2.661E+02  +3.446E+02  -1.214E+03  +6.131E+02  +1.060E+04
  +7.03E+03  +3.92E+05  +1.21E+04  -1.473E+03  -1.113E+04  -2.661E+02  +3.446E+02  -1.214E+03  +6.131E+02  +1.060E+04

element # = 1014     type =4-n tetrahedron
 XX         YY         ZZ         SIGXX       SIGYY       SIGZZ       TAUXY       TAUYZ       TAUZX       SIGV
  +1.47E+05  +5.77E+05  +1.35E+05  +7.615E+02  +2.761E+03  -1.626E+02  +2.963E+02  -1.070E+03  -1.331E+02  +3.233E+03
  +1.72E+05  +5.82E+05  +1.16E+05  +7.615E+02  +2.761E+03  -1.626E+02  +2.963E+02  -1.070E+03  -1.331E+02  +3.233E+03
  +1.51E+05  +6.01E+05  +1.40E+05  +7.615E+02  +2.761E+03  -1.626E+02  +2.963E+02  -1.070E+03  -1.331E+02  +3.233E+03
  +1.29E+05  +6.01E+05  +1.25E+05  +7.615E+02  +2.761E+03  -1.626E+02  +2.963E+02  -1.070E+03  -1.331E+02  +3.233E+03

element # = 1015     type =4-n tetrahedron
 XX         YY         ZZ         SIGXX       SIGYY       SIGZZ       TAUXY       TAUYZ       TAUZX       SIGV
  +3.95E+04  +7.52E+05  +1.39E+05  +2.051E+02  +1.490E+03  -1.466E+02  -7.224E+01  -5.515E+02  -1.303E+02  +1.790E+03
  +3.88E+04  +7.27E+05  +1.55E+05  +2.051E+02  +1.490E+03  -1.466E+02  -7.224E+01  -5.515E+02  -1.303E+02  +1.790E+03
  +1.94E+04  +7.41E+05  +1.50E+05  +2.051E+02  +1.490E+03  -1.466E+02  -7.224E+01  -5.515E+02  -1.303E+02  +1.790E+03
  +4.23E+04  +7.51E+05  +1.57E+05  +2.051E+02  +1.490E+03  -1.466E+02  -7.224E+01  -5.515E+02  -1.303E+02  +1.790E+03

element # = 1016     type =4-n tetrahedron
 XX         YY         ZZ         SIGXX       SIGYY       SIGZZ       TAUXY       TAUYZ       TAUZX       SIGV
  +4.46E+04  +4.84E+04  +6.60E+04  +1.240E+03  -7.103E+03  +1.689E+03  -1.023E+03  -6.221E+03  +1.164E+03  +1.403E+04
  +6.66E+04  +5.41E+04  +5.04E+04  +1.240E+03  -7.103E+03  +1.689E+03  -1.023E+03  -6.221E+03  +1.164E+03  +1.403E+04
  +4.67E+04  +6.77E+04  +6.26E+04  +1.240E+03  -7.103E+03  +1.689E+03  -1.023E+03  -6.221E+03  +1.164E+03  +1.403E+04
  +4.57E+04  +4.68E+04  +4.63E+04  +1.240E+03  -7.103E+03  +1.689E+03  -1.023E+03  -6.221E+03  +1.164E+03  +1.403E+04

element # = 1017     type =4-n tetrahedron
 XX         YY         ZZ         SIGXX       SIGYY       SIGZZ       TAUXY       TAUYZ       TAUZX       SIGV
  +1.05E+05  +5.72E+05  +1.74E+05  -2.156E+02  +2.169E+03  -6.624E+02  +1.093E+02  -8.594E+02  +3.365E+02  +3.089E+03
  +9.79E+04  +5.60E+05  +1.50E+05  -2.156E+02  +2.169E+03  -6.624E+02  +1.093E+02  -8.594E+02  +3.365E+02  +3.089E+03
  +1.24E+05  +5.67E+05  +1.48E+05  -2.156E+02  +2.169E+03  -6.624E+02  +1.093E+02  -8.594E+02  +3.365E+02  +3.089E+03
  +1.06E+05  +5.91E+05  +1.38E+05  -2.156E+02  +2.169E+03  -6.624E+02  +1.093E+02  -8.594E+02  +3.365E+02  +3.089E+03

element # = 1018     type =4-n tetrahedron
 XX         YY         ZZ         SIGXX       SIGYY       SIGZZ       TAUXY       TAUYZ       TAUZX       SIGV
  +1.39E+05  +8.77E+05  +1.71E+05  +5.991E+01  +7.444E+02  -3.415E+02  +2.364E+01  -1.934E+02  -3.733E+01  +1.011E+03
  +1.20E+05  +8.65E+05  +1.93E+05  +5.991E+01  +7.444E+02  -3.415E+02  +2.364E+01  -1.934E+02  -3.733E+01  +1.011E+03
  +1.42E+05  +8.76E+05  +1.93E+05  +5.991E+01  +7.444E+02  -3.415E+02  +2.364E+01  -1.934E+02  -3.733E+01  +1.011E+03
  +1.42E+05  +8.54E+05  +1.93E+05  +5.991E+01  +7.444E+02  -3.415E+02  +2.364E+01  -1.934E+02  -3.733E+01  +1.011E+03

element # = 1019     type =4-n tetrahedron
 XX         YY         ZZ         SIGXX       SIGYY       SIGZZ       TAUXY       TAUYZ       TAUZX       SIGV
  +1.67E+05  +9.89E+04  +7.08E+04  +1.112E+03  +1.356E+03  +2.852E+02  -3.038E+02  -2.998E+03  -1.694E+03  +6.066E+03
  +1.92E+05  +1.10E+05  +6.57E+04  +1.112E+03  +1.356E+03  +2.852E+02  -3.038E+02  -2.998E+03  -1.694E+03  +6.066E+03
  +1.92E+05  +9.83E+04  +8.79E+04  +1.112E+03  +1.356E+03  +2.852E+02  -3.038E+02  -2.998E+03  -1.694E+03  +6.066E+03
  +1.92E+05  +1.21E+05  +8.79E+04  +1.112E+03  +1.356E+03  +2.852E+02  -3.038E+02  -2.998E+03  -1.694E+03  +6.066E+03

element # = 1020     type =4-n tetrahedron
 XX         YY         ZZ         SIGXX       SIGYY       SIGZZ       TAUXY       TAUYZ       TAUZX       SIGV
  +4.91E+04  +1.44E+05  +6.81E+04  +1.031E+02  -4.696E+03  +9.319E+02  +1.768E+02  -3.128E+03  +3.822E+02  +7.589E+03
  +3.98E+04  +1.63E+05  +9.03E+04  +1.031E+02  -4.696E+03  +9.319E+02  +1.768E+02  -3.128E+03  +3.822E+02  +7.589E+03
  +1.70E+04  +1.52E+05  +8.76E+04  +1.031E+02  -4.696E+03  +9.319E+02  +1.768E+02  -3.128E+03  +3.822E+02  +7.589E+03
  +1.70E+04  +1.60E+05  +6.29E+04  +1.031E+02  -4.696E+03  +9.319E+02  +1.768E+02  -3.128E+03  +3.822E+02  +7.589E+03

element # = 1021     type =4-n tetrahedron
 XX         YY         ZZ         SIGXX       SIGYY       SIGZZ       TAUXY       TAUYZ       TAUZX       SIGV
  +2.11E+04  +7.41E+04  +1.72E+05  +2.690E+03  +2.627E+04  +1.088E+03  -1.443E+03  -2.635E+03  +7.748E+02  +2.500E+04
  +4.98E+03  +5.99E+04  +1.88E+05  +2.690E+03  +2.627E+04  +1.088E+03  -1.443E+03  -2.635E+03  +7.748E+02  +2.500E+04
  +4.98E+03  +6.41E+04  +1.65E+05  +2.690E+03  +2.627E+04  +1.088E+03  -1.443E+03  -2.635E+03  +7.748E+02  +2.500E+04
  +4.98E+03  +8.12E+04  +1.88E+05  +2.690E+03  +2.627E+04  +1.088E+03  -1.443E+03  -2.635E+03  +7.748E+02  +2.500E+04

element # = 1022     type =4-n tetrahedron
 XX         YY         ZZ         SIGXX       SIGYY       SIGZZ       TAUXY       TAUYZ       TAUZX       SIGV
  +1.85E+05  +9.50E+04  +1.87E+05  +1.003E+03  +2.091E+04  +1.525E+03  -1.033E+03  -7.524E+02  -8.204E+02  +1.983E+04
  +1.58E+05  +7.82E+04  +1.69E+05  +1.003E+03  +2.091E+04  +1.525E+03  -1.033E+03  -7.524E+02  -8.204E+02  +1.983E+04
  +1.85E+05  +1.03E+05  +1.65E+05  +1.003E+03  +2.091E+04  +1.525E+03  -1.033E+03  -7.524E+02  -8.204E+02  +1.983E+04
  +1.62E+05  +1.03E+05  +1.87E+05  +1.003E+03  +2.091E+04  +1.525E+03  -1.033E+03  -7.524E+02  -8.204E+02  +1.983E+04

element # = 1023     type =4-n tetrahedron
 XX         YY         ZZ         SIGXX       SIGYY       SIGZZ       TAUXY       TAUYZ       TAUZX       SIGV
  +1.67E+05  +3.62E+05  +1.04E+05  +1.160E+03  +4.290E+03  +2.030E+03  -3.113E+02  -2.575E+03  -3.544E+02  +5.327E+03
  +1.42E+05  +3.32E+05  +1.21E+05  +1.160E+03  +4.290E+03  +2.030E+03  -3.113E+02  -2.575E+03  -3.544E+02  +5.327E+03
  +1.33E+05  +3.42E+05  +8.50E+04  +1.160E+03  +4.290E+03  +2.030E+03  -3.113E+02  -2.575E+03  -3.544E+02  +5.327E+03
  +1.19E+05  +3.50E+05  +1.17E+05  +1.160E+03  +4.290E+03  +2.030E+03  -3.113E+02  -2.575E+03  -3.544E+02  +5.327E+03

element # = 1024     type =4-n tetrahedron
 XX         YY         ZZ         SIGXX       SIGYY       SIGZZ       TAUXY       TAUYZ       TAUZX       SIGV
  +1.14E+04  +2.04E+05  +6.48E+04  -5.999E+02  -1.043E+04  -1.905E+03  +2.589E+02  -3.403E+03  +1.939E+02  +1.098E+04
  +2.84E+04  +2.19E+05  +4.69E+04  -5.999E+02  -1.043E+04  -1.905E+03  +2.589E+02  -3.403E+03  +1.939E+02  +1.098E+04
  +1.14E+04  +2.11E+05  +4.55E+04  -5.999E+02  -1.043E+04  -1.905E+03  +2.589E+02  -3.403E+03  +1.939E+02  +1.098E+04
  +3.11E+04  +2.00E+05  +4.94E+04  -5.999E+02  -1.043E+04  -1.905E+03  +2.589E+02  -3.403E+03  +1.939E+02  +1.098E+04

element # = 1025     type =4-n tetrahedron
 XX         YY         ZZ         SIGXX       SIGYY       SIGZZ       TAUXY       TAUYZ       TAUZX       SIGV
  +9.01E+04  +6.97E+05  +1.54E+05  -3.718E+02  +1.215E+03  -1.346E+03  +4.309E+01  -9.074E+02  +3.842E+01  +2.737E+03
  +1.14E+05  +6.78E+05  +1.50E+05  -3.718E+02  +1.215E+03  -1.346E+03  +4.309E+01  -9.074E+02  +3.842E+01  +2.737E+03
  +7.89E+04  +6.71E+05  +1.59E+05  -3.718E+02  +1.215E+03  -1.346E+03  +4.309E+01  -9.074E+02  +3.842E+01  +2.737E+03
  +9.73E+04  +6.74E+05  +1.78E+05  -3.718E+02  +1.215E+03  -1.346E+03  +4.309E+01  -9.074E+02  +3.842E+01  +2.737E+03

element # = 1026     type =4-n tetrahedron
 XX         YY         ZZ         SIGXX       SIGYY       SIGZZ       TAUXY       TAUYZ       TAUZX       SIGV
  +6.91E+03  +3.10E+05  +1.77E+05  +3.324E+02  +1.622E+04  -4.885E+02  -3.056E+02  -1.226E+03  +7.286E+02  +1.651E+04
  +2.93E+04  +3.10E+05  +1.94E+05  +3.324E+02  +1.622E+04  -4.885E+02  -3.056E+02  -1.226E+03  +7.286E+02  +1.651E+04
  +6.91E+03  +2.99E+05  +1.94E+05  +3.324E+02  +1.622E+04  -4.885E+02  -3.056E+02  -1.226E+03  +7.286E+02  +1.651E+04
  +6.91E+03  +3.20E+05  +1.94E+05  +3.324E+02  +1.622E+04  -4.885E+02  -3.056E+02  -1.226E+03  +7.286E+02  +1.651E+04

element # = 1027     type =4-n tetrahedron
 XX         YY         ZZ         SIGXX       SIGYY       SIGZZ       TAUXY       TAUYZ       TAUZX       SIGV
  +1.18E+05  +8.14E+05  +1.90E+05  +1.156E+02  +1.130E+03  -2.726E+02  -2.557E+00  -2.844E+02  -1.527E+01  +1.348E+03
  +1.40E+05  +8.03E+05  +1.90E+05  +1.156E+02  +1.130E+03  -2.726E+02  -2.557E+00  -2.844E+02  -1.527E+01  +1.348E+03
  +1.40E+05  +8.25E+05  +1.90E+05  +1.156E+02  +1.130E+03  -2.726E+02  -2.557E+00  -2.844E+02  -1.527E+01  +1.348E+03
  +1.30E+05  +8.21E+05  +1.59E+05  +1.156E+02  +1.130E+03  -2.726E+02  -2.557E+00  -2.844E+02  -1.527E+01  +1.348E+03

element # = 1028     type =4-n tetrahedron
 XX         YY         ZZ         SIGXX       SIGYY       SIGZZ       TAUXY       TAUYZ       TAUZX       SIGV
  +6.53E+04  +8.54E+05  +1.26E+05  +3.859E+01  +3.263E+02  -3.295E+02  +2.223E+01  -6.238E+02  +5.253E+01  +1.225E+03
  +5.88E+04  +8.31E+05  +1.08E+05  +3.859E+01  +3.263E+02  -3.295E+02  +2.223E+01  -6.238E+02  +5.253E+01  +1.225E+03
  +6.85E+04  +8.23E+05  +1.35E+05  +3.859E+01  +3.263E+02  -3.295E+02  +2.223E+01  -6.238E+02  +5.253E+01  +1.225E+03
  +9.71E+04  +8.31E+05  +1.27E+05  +3.859E+01  +3.263E+02  -3.295E+02  +2.223E+01  -6.238E+02  +5.253E+01  +1.225E+03

element # = 1029     type =4-n tetrahedron
 XX         YY         ZZ         SIGXX       SIGYY       SIGZZ       TAUXY       TAUYZ       TAUZX       SIGV
  +5.86E+04  +1.26E+04  +4.09E+04  -4.455E+03  -1.870E+04  -8.293E+03  -3.581E+02  -4.434E+03  -1.719E+02  +1.492E+04
  +7.40E+04  +3.67E+04  +3.70E+04  -4.455E+03  -1.870E+04  -8.293E+03  -3.581E+02  -4.434E+03  -1.719E+02  +1.492E+04
  +5.30E+04  +2.95E+04  +3.29E+04  -4.455E+03  -1.870E+04  -8.293E+03  -3.581E+02  -4.434E+03  -1.719E+02  +1.492E+04
  +7.13E+04  +1.26E+04  +1.78E+04  -4.455E+03  -1.870E+04  -8.293E+03  -3.581E+02  -4.434E+03  -1.719E+02  +1.492E+04

element # = 1030     type =4-n tetrahedron
 XX         YY         ZZ         SIGXX       SIGYY       SIGZZ       TAUXY       TAUYZ       TAUZX       SIGV
  +1.94E+05  +5.66E+03  +9.11E+04  -6.568E+02  -1.533E+03  -6.568E+02  -7.942E+01  -3.377E+03  +0.000E+00  +5.917E+03
  +1.75E+05  +5.66E+03  +1.00E+05  -6.568E+02  -1.533E+03  -6.568E+02  -7.942E+01  -3.377E+03  +0.000E+00  +5.917E+03
  +1.94E+05  +2.40E+04  +1.00E+05  -6.568E+02  -1.533E+03  -6.568E+02  -7.942E+01  -3.377E+03  +0.000E+00  +5.917E+03
  +1.94E+05  +5.66E+03  +1.09E+05  -6.568E+02  -1.533E+03  -6.568E+02  -7.942E+01  -3.377E+03  +0.000E+00  +5.917E+03

element # = 1031     type =4-n tetrahedron
 XX         YY         ZZ         SIGXX       SIGYY       SIGZZ       TAUXY       TAUYZ       TAUZX       SIGV
  +1.71E+05  +2.03E+05  +1.86E+05  -3.140E+03  +8.217E+03  -2.503E+03  -1.175E+03  -1.280E+03  +2.350E+02  +1.146E+04
  +1.93E+05  +1.81E+05  +1.64E+05  -3.140E+03  +8.217E+03  -2.503E+03  -1.175E+03  -1.280E+03  +2.350E+02  +1.146E+04
  +1.93E+05  +1.93E+05  +1.86E+05  -3.140E+03  +8.217E+03  -2.503E+03  -1.175E+03  -1.280E+03  +2.350E+02  +1.146E+04
  +1.93E+05  +2.03E+05  +1.64E+05  -3.140E+03  +8.217E+03  -2.503E+03  -1.175E+03  -1.280E+03  +2.350E+02  +1.146E+04

element # = 1032     type =4-n tetrahedron
 XX         YY         ZZ         SIGXX       SIGYY       SIGZZ       TAUXY       TAUYZ       TAUZX       SIGV
  +5.16E+04  +8.63E+04  +5.92E+04  +6.674E+02  -1.153E+04  +1.015E+03  +1.055E+03  -3.937E+03  -6.310E+00  +1.424E+04
  +7.15E+04  +7.26E+04  +4.71E+04  +6.674E+02  -1.153E+04  +1.015E+03  +1.055E+03  -3.937E+03  -6.310E+00  +1.424E+04
  +6.52E+04  +1.07E+05  +5.32E+04  +6.674E+02  -1.153E+04  +1.015E+03  +1.055E+03  -3.937E+03  -6.310E+00  +1.424E+04
  +5.09E+04  +8.51E+04  +4.15E+04  +6.674E+02  -1.153E+04  +1.015E+03  +1.055E+03  -3.937E+03  -6.310E+00  +1.424E+04

element # = 1033     type =4-n tetrahedron
 XX         YY         ZZ         SIGXX       SIGYY       SIGZZ       TAUXY       TAUYZ       TAUZX       SIGV
  +1.04E+05  +1.92E+05  +1.60E+05  -1.330E+03  +1.137E+04  -1.474E+03  +1.396E+03  -1.037E+03  -2.278E+02  +1.313E+04
  +1.31E+05  +1.97E+05  +1.84E+05  -1.330E+03  +1.137E+04  -1.474E+03  +1.396E+03  -1.037E+03  -2.278E+02  +1.313E+04
  +1.21E+05  +1.62E+05  +1.56E+05  -1.330E+03  +1.137E+04  -1.474E+03  +1.396E+03  -1.037E+03  -2.278E+02  +1.313E+04
  +1.09E+05  +1.86E+05  +1.84E+05  -1.330E+03  +1.137E+04  -1.474E+03  +1.396E+03  -1.037E+03  -2.278E+02  +1.313E+04

element # = 1034     type =4-n tetrahedron
 XX         YY         ZZ         SIGXX       SIGYY       SIGZZ       TAUXY       TAUYZ       TAUZX       SIGV
  +5.50E+03  +6.02E+04  +1.15E+04  -2.673E+03  -2.639E+04  -1.412E+03  +9.466E+02  -2.681E+03  +3.815E+02  +2.487E+04
  +2.33E+04  +7.55E+04  +2.52E+04  -2.673E+03  -2.639E+04  -1.412E+03  +9.466E+02  -2.681E+03  +3.815E+02  +2.487E+04
  +5.50E+03  +6.44E+04  +3.49E+04  -2.673E+03  -2.639E+04  -1.412E+03  +9.466E+02  -2.681E+03  +3.815E+02  +2.487E+04
  +5.50E+03  +8.15E+04  +1.15E+04  -2.673E+03  -2.639E+04  -1.412E+03  +9.466E+02  -2.681E+03  +3.815E+02  +2.487E+04

element # = 1035     type =4-n tetrahedron
 XX         YY         ZZ         SIGXX       SIGYY       SIGZZ       TAUXY       TAUYZ       TAUZX       SIGV
  +2.38E+04  +1.88E+05  +1.56E+05  +7.482E+00  +1.252E+04  -7.342E+02  -2.272E+02  -2.209E+03  +8.600E+02  +1.355E+04
  +5.61E+03  +2.01E+05  +1.54E+05  +7.482E+00  +1.252E+04  -7.342E+02  -2.272E+02  -2.209E+03  +8.600E+02  +1.355E+04
  +5.61E+03  +1.79E+05  +1.53E+05  +7.482E+00  +1.252E+04  -7.342E+02  -2.272E+02  -2.209E+03  +8.600E+02  +1.355E+04
  +5.61E+03  +1.91E+05  +1.38E+05  +7.482E+00  +1.252E+04  -7.342E+02  -2.272E+02  -2.209E+03  +8.600E+02  +1.355E+04

element # = 1036     type =4-n tetrahedron
 XX         YY         ZZ         SIGXX       SIGYY       SIGZZ       TAUXY       TAUYZ       TAUZX       SIGV
  +1.93E+05  +3.20E+05  +6.91E+03  -3.361E+02  -1.703E+04  -2.046E+02  -7.054E+02  -9.693E+02  -6.643E+02  +1.693E+04
  +1.93E+05  +2.99E+05  +6.91E+03  -3.361E+02  -1.703E+04  -2.046E+02  -7.054E+02  -9.693E+02  -6.643E+02  +1.693E+04
  +1.71E+05  +3.09E+05  +6.91E+03  -3.361E+02  -1.703E+04  -2.046E+02  -7.054E+02  -9.693E+02  -6.643E+02  +1.693E+04
  +1.93E+05  +3.09E+05  +2.93E+04  -3.361E+02  -1.703E+04  -2.046E+02  -7.054E+02  -9.693E+02  -6.643E+02  +1.693E+04

element # = 1037     type =4-n tetrahedron
 XX         YY         ZZ         SIGXX       SIGYY       SIGZZ       TAUXY       TAUYZ       TAUZX       SIGV
  +5.49E+04  +2.87E+05  +6.20E+04  -2.842E+03  -9.694E+03  -1.629E+03  -3.000E+02  -1.719E+03  +1.274E+03  +8.411E+03
  +5.11E+04  +3.02E+05  +9.04E+04  -2.842E+03  -9.694E+03  -1.629E+03  -3.000E+02  -1.719E+03  +1.274E+03  +8.411E+03
  +5.44E+04  +3.08E+05  +6.19E+04  -2.842E+03  -9.694E+03  -1.629E+03  -3.000E+02  -1.719E+03  +1.274E+03  +8.411E+03
  +7.35E+04  +2.96E+05  +8.05E+04  -2.842E+03  -9.694E+03  -1.629E+03  -3.000E+02  -1.719E+03  +1.274E+03  +8.411E+03

element # = 1038     type =4-n tetrahedron
 XX         YY         ZZ         SIGXX       SIGYY       SIGZZ       TAUXY       TAUYZ       TAUZX       SIGV
  +3.73E+04  +1.65E+05  +1.19E+05  -3.491E+02  +6.835E+03  -1.295E+03  +1.498E+02  -2.680E+03  +3.616E+02  +9.017E+03
  +1.44E+04  +1.61E+05  +1.42E+05  -3.491E+02  +6.835E+03  -1.295E+03  +1.498E+02  -2.680E+03  +3.616E+02  +9.017E+03
  +3.84E+04  +1.50E+05  +1.42E+05  -3.491E+02  +6.835E+03  -1.295E+03  +1.498E+02  -2.680E+03  +3.616E+02  +9.017E+03
  +1.44E+04  +1.53E+05  +1.17E+05  -3.491E+02  +6.835E+03  -1.295E+03  +1.498E+02  -2.680E+03  +3.616E+02  +9.017E+03

element # = 1039     type =4-n tetrahedron
 XX         YY         ZZ         SIGXX       SIGYY       SIGZZ       TAUXY       TAUYZ       TAUZX       SIGV
  +6.57E+04  +3.23E+05  +5.98E+04  +1.138E+03  -2.803E+03  -5.489E+02  +2.576E+01  -2.284E+03  +4.873E+02  +5.301E+03
  +9.91E+04  +3.31E+05  +6.46E+04  +1.138E+03  -2.803E+03  -5.489E+02  +2.576E+01  -2.284E+03  +4.873E+02  +5.301E+03
  +8.48E+04  +3.12E+05  +7.84E+04  +1.138E+03  -2.803E+03  -5.489E+02  +2.576E+01  -2.284E+03  +4.873E+02  +5.301E+03
  +6.63E+04  +3.37E+05  +7.64E+04  +1.138E+03  -2.803E+03  -5.489E+02  +2.576E+01  -2.284E+03  +4.873E+02  +5.301E+03

element # = 1040     type =4-n tetrahedron
 XX         YY         ZZ         SIGXX       SIGYY       SIGZZ       TAUXY       TAUYZ       TAUZX       SIGV
  +3.82E+04  +9.93E+05  +1.13E+05  +2.245E+01  +4.547E+01  -3.456E+02  +6.990E+00  -7.728E+01  -1.077E+01  +4.036E+02
  +3.87E+04  +9.72E+05  +1.25E+05  +2.245E+01  +4.547E+01  -3.456E+02  +6.990E+00  -7.728E+01  -1.077E+01  +4.036E+02
  +1.91E+04  +9.93E+05  +1.22E+05  +2.245E+01  +4.547E+01  -3.456E+02  +6.990E+00  -7.728E+01  -1.077E+01  +4.036E+02
  +4.22E+04  +9.93E+05  +1.35E+05  +2.245E+01  +4.547E+01  -3.456E+02  +6.990E+00  -7.728E+01  -1.077E+01  +4.036E+02

element # = 1041     type =4-n tetrahedron
 XX         YY         ZZ         SIGXX       SIGYY       SIGZZ       TAUXY       TAUYZ       TAUZX       SIGV
  +1.00E+05  +3.54E+05  +3.97E+04  +1.857E+02  -9.462E+03  -2.335E+02  -4.502E+02  -8.143E+02  +1.730E+02  +9.586E+03
  +6.77E+04  +3.80E+05  +3.20E+04  +1.857E+02  -9.462E+03  -2.335E+02  -4.502E+02  -8.143E+02  +1.730E+02  +9.586E+03
  +6.73E+04  +3.63E+05  +1.37E+04  +1.857E+02  -9.462E+03  -2.335E+02  -4.502E+02  -8.143E+02  +1.730E+02  +9.586E+03
  +8.96E+04  +3.74E+05  +1.37E+04  +1.857E+02  -9.462E+03  -2.335E+02  -4.502E+02  -8.143E+02  +1.730E+02  +9.586E+03

element # = 1042     type =4-n tetrahedron
 XX         YY         ZZ         SIGXX       SIGYY       SIGZZ       TAUXY       TAUYZ       TAUZX       SIGV
  +2.31E+04  +4.98E+05  +4.44E+04  +5.783E+02  -2.739E+03  +8.918E+02  -1.124E+02  -1.318E+03  -5.598E+02  +4.282E+03
  +4.55E+04  +4.99E+05  +2.20E+04  +5.783E+02  -2.739E+03  +8.918E+02  -1.124E+02  -1.318E+03  -5.598E+02  +4.282E+03
  +5.09E+04  +4.85E+05  +5.03E+04  +5.783E+02  -2.739E+03  +8.918E+02  -1.124E+02  -1.318E+03  -5.598E+02  +4.282E+03
  +4.78E+04  +5.10E+05  +4.21E+04  +5.783E+02  -2.739E+03  +8.918E+02  -1.124E+02  -1.318E+03  -5.598E+02  +4.282E+03

element # = 1043     type =4-n tetrahedron
 XX         YY         ZZ         SIGXX       SIGYY       SIGZZ       TAUXY       TAUYZ       TAUZX       SIGV
  +9.38E+04  +4.87E+05  +2.38E+04  +4.553E+02  -2.939E+03  +1.084E+03  +1.204E+02  -1.566E+03  -2.127E+01  +4.632E+03
  +1.11E+05  +5.04E+05  +5.21E+04  +4.553E+02  -2.939E+03  +1.084E+03  +1.204E+02  -1.566E+03  -2.127E+01  +4.632E+03
  +7.69E+04  +4.84E+05  +5.21E+04  +4.553E+02  -2.939E+03  +1.084E+03  +1.204E+02  -1.566E+03  -2.127E+01  +4.632E+03
  +7.38E+04  +5.09E+05  +4.40E+04  +4.553E+02  -2.939E+03  +1.084E+03  +1.204E+02  -1.566E+03  -2.127E+01  +4.632E+03

element # = 1044     type =4-n tetrahedron
 XX         YY         ZZ         SIGXX       SIGYY       SIGZZ       TAUXY       TAUYZ       TAUZX       SIGV
  +1.55E+04  +5.06E+05  +9.77E+04  -2.317E+01  -5.422E+02  -5.830E+01  +1.930E+02  -1.773E+03  -2.237E+01  +3.131E+03
  +4.33E+04  +4.83E+05  +8.13E+04  -2.317E+01  -5.422E+02  -5.830E+01  +1.930E+02  -1.773E+03  -2.237E+01  +3.131E+03
  +1.55E+04  +4.84E+05  +9.79E+04  -2.317E+01  -5.422E+02  -5.830E+01  +1.930E+02  -1.773E+03  -2.237E+01  +3.131E+03
  +3.78E+04  +5.01E+05  +1.06E+05  -2.317E+01  -5.422E+02  -5.830E+01  +1.930E+02  -1.773E+03  -2.237E+01  +3.131E+03

element # = 1045     type =4-n tetrahedron
 XX         YY         ZZ         SIGXX       SIGYY       SIGZZ       TAUXY       TAUYZ       TAUZX       SIGV
  +8.58E+04  +3.75E+05  +1.84E+05  -4.594E+02  +8.176E+03  -9.744E+02  +1.334E+02  -1.493E+03  +2.613E+02  +9.286E+03
  +6.51E+04  +3.78E+05  +1.65E+05  -4.594E+02  +8.176E+03  -9.744E+02  +1.334E+02  -1.493E+03  +2.613E+02  +9.286E+03
  +6.35E+04  +3.64E+05  +1.84E+05  -4.594E+02  +8.176E+03  -9.744E+02  +1.334E+02  -1.493E+03  +2.613E+02  +9.286E+03
  +8.29E+04  +3.63E+05  +1.53E+05  -4.594E+02  +8.176E+03  -9.744E+02  +1.334E+02  -1.493E+03  +2.613E+02  +9.286E+03

element # = 1046     type =4-n tetrahedron
 XX         YY         ZZ         SIGXX       SIGYY       SIGZZ       TAUXY       TAUYZ       TAUZX       SIGV
  +4.98E+03  +4.20E+05  +1.43E+05  +6.809E+02  +5.322E+03  -2.537E+02  -8.104E+02  -2.346E+03  +2.588E+02  +6.740E+03
  +4.98E+03  +4.27E+05  +1.18E+05  +6.809E+02  +5.322E+03  -2.537E+02  -8.104E+02  -2.346E+03  +2.588E+02  +6.740E+03
  +2.11E+04  +4.41E+05  +1.25E+05  +6.809E+02  +5.322E+03  -2.537E+02  -8.104E+02  -2.346E+03  +2.588E+02  +6.740E+03
  +4.98E+03  +4.40E+05  +1.41E+05  +6.809E+02  +5.322E+03  -2.537E+02  -8.104E+02  -2.346E+03  +2.588E+02  +6.740E+03

element # = 1047     type =4-n tetrahedron
 XX         YY         ZZ         SIGXX       SIGYY       SIGZZ       TAUXY       TAUYZ       TAUZX       SIGV
  +3.90E+04  +4.45E+05  +1.55E+05  +9.237E+01  +6.395E+03  +2.633E+02  +6.107E+01  -1.564E+03  -3.364E+01  +6.785E+03
  +4.61E+04  +4.66E+05  +1.53E+05  +9.237E+01  +6.395E+03  +2.633E+02  +6.107E+01  -1.564E+03  -3.364E+01  +6.785E+03
  +1.93E+04  +4.53E+05  +1.49E+05  +9.237E+01  +6.395E+03  +2.633E+02  +6.107E+01  -1.564E+03  -3.364E+01  +6.785E+03
  +3.55E+04  +4.53E+05  +1.34E+05  +9.237E+01  +6.395E+03  +2.633E+02  +6.107E+01  -1.564E+03  -3.364E+01  +6.785E+03

element # = 1048     type =4-n tetrahedron
 XX         YY         ZZ         SIGXX       SIGYY       SIGZZ       TAUXY       TAUYZ       TAUZX       SIGV
  +3.08E+04  +4.35E+05  +1.54E+05  +9.191E+01  +5.739E+03  +4.344E+02  +1.714E+02  -1.219E+03  +1.557E+02  +5.890E+03
  +1.11E+04  +4.22E+05  +1.52E+05  +9.191E+01  +5.739E+03  +4.344E+02  +1.714E+02  -1.219E+03  +1.557E+02  +5.890E+03
  +2.72E+04  +4.42E+05  +1.34E+05  +9.191E+01  +5.739E+03  +4.344E+02  +1.714E+02  -1.219E+03  +1.557E+02  +5.890E+03
  +1.11E+04  +4.42E+05  +1.49E+05  +9.191E+01  +5.739E+03  +4.344E+02  +1.714E+02  -1.219E+03  +1.557E+02  +5.890E+03

element # = 1049     type =4-n tetrahedron
 XX         YY         ZZ         SIGXX       SIGYY       SIGZZ       TAUXY       TAUYZ       TAUZX       SIGV
  +5.27E+04  +2.79E+05  +1.79E+05  -1.206E+02  +1.711E+04  -1.225E+03  -8.413E+01  -2.129E+03  +3.722E+02  +1.820E+04
  +7.83E+04  +2.84E+05  +1.95E+05  -1.206E+02  +1.711E+04  -1.225E+03  -8.413E+01  -2.129E+03  +3.722E+02  +1.820E+04
  +5.59E+04  +2.73E+05  +1.95E+05  -1.206E+02  +1.711E+04  -1.225E+03  -8.413E+01  -2.129E+03  +3.722E+02  +1.820E+04
  +5.59E+04  +2.95E+05  +1.95E+05  -1.206E+02  +1.711E+04  -1.225E+03  -8.413E+01  -2.129E+03  +3.722E+02  +1.820E+04

element # = 1050     type =4-n tetrahedron
 XX         YY         ZZ         SIGXX       SIGYY       SIGZZ       TAUXY       TAUYZ       TAUZX       SIGV
  +9.17E+04  +2.02E+05  +7.92E+04  -1.316E+03  -4.884E+03  -2.654E+03  +5.349E+02  -2.250E+03  -4.552E+01  +5.080E+03
  +1.14E+05  +1.82E+05  +8.17E+04  -1.316E+03  -4.884E+03  -2.654E+03  +5.349E+02  -2.250E+03  -4.552E+01  +5.080E+03
  +7.41E+04  +1.83E+05  +9.99E+04  -1.316E+03  -4.884E+03  -2.654E+03  +5.349E+02  -2.250E+03  -4.552E+01  +5.080E+03
  +9.12E+04  +1.96E+05  +1.18E+05  -1.316E+03  -4.884E+03  -2.654E+03  +5.349E+02  -2.250E+03  -4.552E+01  +5.080E+03

element # = 1051     type =4-n tetrahedron
 XX         YY         ZZ         SIGXX       SIGYY       SIGZZ       TAUXY       TAUYZ       TAUZX       SIGV
  +6.70E+04  +1.59E+05  +7.87E+03  -9.938E+02  -2.200E+04  -1.948E+03  -6.420E+02  -3.599E+03  -1.111E+03  +2.159E+04
  +8.92E+04  +1.70E+05  +7.87E+03  -9.938E+02  -2.200E+04  -1.948E+03  -6.420E+02  -3.599E+03  -1.111E+03  +2.159E+04
  +8.92E+04  +1.48E+05  +7.87E+03  -9.938E+02  -2.200E+04  -1.948E+03  -6.420E+02  -3.599E+03  -1.111E+03  +2.159E+04
  +7.67E+04  +1.44E+05  +3.33E+04  -9.938E+02  -2.200E+04  -1.948E+03  -6.420E+02  -3.599E+03  -1.111E+03  +2.159E+04

element # = 1052     type =4-n tetrahedron
 XX         YY         ZZ         SIGXX       SIGYY       SIGZZ       TAUXY       TAUYZ       TAUZX       SIGV
  +1.22E+05  +1.01E+05  +4.40E+04  -3.164E+03  -2.430E+04  -9.043E+01  -1.887E+03  -1.156E+03  +1.873E+02  +2.315E+04
  +8.96E+04  +1.20E+05  +4.19E+04  -3.164E+03  -2.430E+04  -9.043E+01  -1.887E+03  -1.156E+03  +1.873E+02  +2.315E+04
  +1.02E+05  +1.01E+05  +1.64E+04  -3.164E+03  -2.430E+04  -9.043E+01  -1.887E+03  -1.156E+03  +1.873E+02  +2.315E+04
  +1.02E+05  +1.23E+05  +1.64E+04  -3.164E+03  -2.430E+04  -9.043E+01  -1.887E+03  -1.156E+03  +1.873E+02  +2.315E+04

element # = 1053     type =4-n tetrahedron
 XX         YY         ZZ         SIGXX       SIGYY       SIGZZ       TAUXY       TAUYZ       TAUZX       SIGV
  +3.63E+04  +8.10E+04  +8.24E+04  -3.764E+03  -7.408E+03  -3.165E+03  -5.239E+01  -1.501E+01  -3.881E+02  +4.035E+03
  +3.43E+04  +6.17E+04  +8.58E+04  -3.764E+03  -7.408E+03  -3.165E+03  -5.239E+01  -1.501E+01  -3.881E+02  +4.035E+03
  +1.78E+04  +8.40E+04  +9.57E+04  -3.764E+03  -7.408E+03  -3.165E+03  -5.239E+01  -1.501E+01  -3.881E+02  +4.035E+03
  +4.04E+04  +8.66E+04  +1.05E+05  -3.764E+03  -7.408E+03  -3.165E+03  -5.239E+01  -1.501E+01  -3.881E+02  +4.035E+03

element # = 1054     type =4-n tetrahedron
 XX         YY         ZZ         SIGXX       SIGYY       SIGZZ       TAUXY       TAUYZ       TAUZX       SIGV
  +1.78E+05  +8.63E+05  +1.93E+05  +5.254E+01  +7.344E+02  -3.697E+02  +7.244E+01  -1.998E+02  +2.655E+01  +1.034E+03
  +1.53E+05  +8.76E+05  +1.71E+05  +5.254E+01  +7.344E+02  -3.697E+02  +7.244E+01  -1.998E+02  +2.655E+01  +1.034E+03
  +1.56E+05  +8.76E+05  +1.93E+05  +5.254E+01  +7.344E+02  -3.697E+02  +7.244E+01  -1.998E+02  +2.655E+01  +1.034E+03
  +1.56E+05  +8.53E+05  +1.93E+05  +5.254E+01  +7.344E+02  -3.697E+02  +7.244E+01  -1.998E+02  +2.655E+01  +1.034E+03

element # = 1055     type =4-n tetrahedron
 XX         YY         ZZ         SIGXX       SIGYY       SIGZZ       TAUXY       TAUYZ       TAUZX       SIGV
  +1.25E+05  +2.79E+05  +5.39E+04  +6.649E+02  -5.591E+03  +1.588E+03  +1.685E+02  -2.386E+03  -5.317E+02  +7.986E+03
  +1.08E+05  +2.90E+05  +2.83E+04  +6.649E+02  -5.591E+03  +1.588E+03  +1.685E+02  -2.386E+03  -5.317E+02  +7.986E+03
  +1.18E+05  +3.13E+05  +5.43E+04  +6.649E+02  -5.591E+03  +1.588E+03  +1.685E+02  -2.386E+03  -5.317E+02  +7.986E+03
  +1.04E+05  +2.94E+05  +6.81E+04  +6.649E+02  -5.591E+03  +1.588E+03  +1.685E+02  -2.386E+03  -5.317E+02  +7.986E+03

element # = 1056     type =4-n tetrahedron
 XX         YY         ZZ         SIGXX       SIGYY       SIGZZ       TAUXY       TAUYZ       TAUZX       SIGV
  +1.07E+05  +6.80E+05  +1.37E+05  -6.137E+01  +1.444E+03  -7.169E+02  -1.444E+01  -1.139E+03  +1.638E+02  +2.767E+03
  +8.32E+04  +6.99E+05  +1.42E+05  -6.137E+01  +1.444E+03  -7.169E+02  -1.444E+01  -1.139E+03  +1.638E+02  +2.767E+03
  +7.20E+04  +6.73E+05  +1.47E+05  -6.137E+01  +1.444E+03  -7.169E+02  -1.444E+01  -1.139E+03  +1.638E+02  +2.767E+03
  +6.81E+04  +6.82E+05  +1.26E+05  -6.137E+01  +1.444E+03  -7.169E+02  -1.444E+01  -1.139E+03  +1.638E+02  +2.767E+03

element # = 1057     type =4-n tetrahedron
 XX         YY         ZZ         SIGXX       SIGYY       SIGZZ       TAUXY       TAUYZ       TAUZX       SIGV
  +7.43E+03  +3.92E+05  +1.54E+05  +2.835E+02  +7.601E+03  -5.799E+02  -1.721E+02  -2.140E+03  +5.230E+02  +8.676E+03
  +3.15E+04  +3.85E+05  +1.54E+05  +2.835E+02  +7.601E+03  -5.799E+02  -1.721E+02  -2.140E+03  +5.230E+02  +8.676E+03
  +7.43E+03  +3.81E+05  +1.39E+05  +2.835E+02  +7.601E+03  -5.799E+02  -1.721E+02  -2.140E+03  +5.230E+02  +8.676E+03
  +7.43E+03  +3.71E+05  +1.55E+05  +2.835E+02  +7.601E+03  -5.799E+02  -1.721E+02  -2.140E+03  +5.230E+02  +8.676E+03

element # = 1058     type =4-n tetrahedron
 XX         YY         ZZ         SIGXX       SIGYY       SIGZZ       TAUXY       TAUYZ       TAUZX       SIGV
  +6.91E+03  +4.82E+05  +3.64E+04  +5.986E+02  -4.668E+03  +6.316E+02  +5.737E+02  -1.043E+03  -9.651E+01  +5.674E+03
  +2.93E+04  +4.62E+05  +1.39E+04  +5.986E+02  -4.668E+03  +6.316E+02  +5.737E+02  -1.043E+03  -9.651E+01  +5.674E+03
  +6.91E+03  +4.72E+05  +1.39E+04  +5.986E+02  -4.668E+03  +6.316E+02  +5.737E+02  -1.043E+03  -9.651E+01  +5.674E+03
  +6.91E+03  +4.60E+05  +3.63E+04  +5.986E+02  -4.668E+03  +6.316E+02  +5.737E+02  -1.043E+03  -9.651E+01  +5.674E+03

element # = 1059     type =4-n tetrahedron
 XX         YY         ZZ         SIGXX       SIGYY       SIGZZ       TAUXY       TAUYZ       TAUZX       SIGV
  +1.86E+05  +2.99E+05  +1.71E+05  +1.031E+03  +1.689E+04  +3.434E+02  +4.789E+02  -6.052E+02  +5.262E+02  +1.630E+04
  +1.64E+05  +2.78E+05  +1.93E+05  +1.031E+03  +1.689E+04  +3.434E+02  +4.789E+02  -6.052E+02  +5.262E+02  +1.630E+04
  +1.64E+05  +2.99E+05  +1.93E+05  +1.031E+03  +1.689E+04  +3.434E+02  +4.789E+02  -6.052E+02  +5.262E+02  +1.630E+04
  +1.86E+05  +2.89E+05  +1.93E+05  +1.031E+03  +1.689E+04  +3.434E+02  +4.789E+02  -6.052E+02  +5.262E+02  +1.630E+04

element # = 1060     type =4-n tetrahedron
 XX         YY         ZZ         SIGXX       SIGYY       SIGZZ       TAUXY       TAUYZ       TAUZX       SIGV
  +6.50E+04  +3.94E+05  +1.40E+05  -3.887E+01  +2.901E+03  -7.020E+02  -1.810E+02  -1.650E+03  -1.462E+02  +4.400E+03
  +8.73E+04  +4.21E+05  +1.22E+05  -3.887E+01  +2.901E+03  -7.020E+02  -1.810E+02  -1.650E+03  -1.462E+02  +4.400E+03
  +6.12E+04  +4.02E+05  +1.15E+05  -3.887E+01  +2.901E+03  -7.020E+02  -1.810E+02  -1.650E+03  -1.462E+02  +4.400E+03
  +8.27E+04  +3.79E+05  +1.28E+05  -3.887E+01  +2.901E+03  -7.020E+02  -1.810E+02  -1.650E+03  -1.462E+02  +4.400E+03

element # = 1061     type =4-n tetrahedron
 XX         YY         ZZ         SIGXX       SIGYY       SIGZZ       TAUXY       TAUYZ       TAUZX       SIGV
  +1.86E+05  +2.99E+05  +2.93E+04  -1.509E+03  -1.737E+04  -2.334E+03  -9.428E+02  +2.885E+02  +1.459E+02  +1.556E+04
  +1.64E+05  +2.78E+05  +6.91E+03  -1.509E+03  -1.737E+04  -2.334E+03  -9.428E+02  +2.885E+02  +1.459E+02  +1.556E+04
  +1.86E+05  +2.89E+05  +6.91E+03  -1.509E+03  -1.737E+04  -2.334E+03  -9.428E+02  +2.885E+02  +1.459E+02  +1.556E+04
  +1.64E+05  +2.99E+05  +6.91E+03  -1.509E+03  -1.737E+04  -2.334E+03  -9.428E+02  +2.885E+02  +1.459E+02  +1.556E+04

element # = 1062     type =4-n tetrahedron
 XX         YY         ZZ         SIGXX       SIGYY       SIGZZ       TAUXY       TAUYZ       TAUZX       SIGV
  +7.03E+04  +7.03E+05  +1.46E+05  +1.334E+02  +2.009E+03  -2.937E+02  -2.768E+02  -9.283E+02  +9.104E-01  +2.705E+03
  +5.22E+04  +6.99E+05  +1.52E+05  +1.334E+02  +2.009E+03  -2.937E+02  -2.768E+02  -9.283E+02  +9.104E-01  +2.705E+03
  +5.90E+04  +6.77E+05  +1.51E+05  +1.334E+02  +2.009E+03  -2.937E+02  -2.768E+02  -9.283E+02  +9.104E-01  +2.705E+03
  +5.51E+04  +6.87E+05  +1.30E+05  +1.334E+02  +2.009E+03  -2.937E+02  -2.768E+02  -9.283E+02  +9.104E-01  +2.705E+03

element # = 1063     type =4-n tetrahedron
 XX         YY         ZZ         SIGXX       SIGYY       SIGZZ       TAUXY       TAUYZ       TAUZX       SIGV
  +5.66E+04  +2.44E+05  +1.61E+05  -7.777E+01  +1.137E+04  -7.219E+01  -5.579E+02  -1.167E+03  -2.075E+02  +1.167E+04
  +7.75E+04  +2.68E+05  +1.58E+05  -7.777E+01  +1.137E+04  -7.219E+01  -5.579E+02  -1.167E+03  -2.075E+02  +1.167E+04
  +8.25E+04  +2.47E+05  +1.81E+05  -7.777E+01  +1.137E+04  -7.219E+01  -5.579E+02  -1.167E+03  -2.075E+02  +1.167E+04
  +5.69E+04  +2.65E+05  +1.65E+05  -7.777E+01  +1.137E+04  -7.219E+01  -5.579E+02  -1.167E+03  -2.075E+02  +1.167E+04

element # = 1064     type =4-n tetrahedron
 XX         YY         ZZ         SIGXX       SIGYY       SIGZZ       TAUXY       TAUYZ       TAUZX       SIGV
  +1.00E+05  +2.73E+05  +1.69E+05  +7.912E+02  +1.840E+04  -1.111E+03  -5.749E+02  +8.071E+01  +1.443E+03  +1.883E+04
  +1.28E+05  +2.64E+05  +1.93E+05  +7.912E+02  +1.840E+04  -1.111E+03  -5.749E+02  +8.071E+01  +1.443E+03  +1.883E+04
  +1.05E+05  +2.53E+05  +1.93E+05  +7.912E+02  +1.840E+04  -1.111E+03  -5.749E+02  +8.071E+01  +1.443E+03  +1.883E+04
  +1.05E+05  +2.75E+05  +1.93E+05  +7.912E+02  +1.840E+04  -1.111E+03  -5.749E+02  +8.071E+01  +1.443E+03  +1.883E+04

element # = 1065     type =4-n tetrahedron
 XX         YY         ZZ         SIGXX       SIGYY       SIGZZ       TAUXY       TAUYZ       TAUZX       SIGV
  +1.05E+05  +5.08E+05  +1.42E+05  -7.880E+01  +3.307E+03  -1.217E+03  +3.480E+01  -1.704E+03  +2.784E+02  +5.056E+03
  +6.76E+04  +5.11E+05  +1.31E+05  -7.880E+01  +3.307E+03  -1.217E+03  +3.480E+01  -1.704E+03  +2.784E+02  +5.056E+03
  +8.33E+04  +5.26E+05  +1.44E+05  -7.880E+01  +3.307E+03  -1.217E+03  +3.480E+01  -1.704E+03  +2.784E+02  +5.056E+03
  +7.21E+04  +4.97E+05  +1.50E+05  -7.880E+01  +3.307E+03  -1.217E+03  +3.480E+01  -1.704E+03  +2.784E+02  +5.056E+03

element # = 1066     type =4-n tetrahedron
 XX         YY         ZZ         SIGXX       SIGYY       SIGZZ       TAUXY       TAUYZ       TAUZX       SIGV
  +1.12E+05  +9.93E+05  +7.87E+04  -1.240E+01  -5.036E+01  -1.239E+02  +1.548E+01  -7.768E+01  +1.409E+01  +1.705E+02
  +1.33E+05  +9.93E+05  +5.70E+04  -1.240E+01  -5.036E+01  -1.239E+02  +1.548E+01  -7.768E+01  +1.409E+01  +1.705E+02
  +1.12E+05  +9.93E+05  +5.31E+04  -1.240E+01  -5.036E+01  -1.239E+02  +1.548E+01  -7.768E+01  +1.409E+01  +1.705E+02
  +1.29E+05  +9.69E+05  +5.69E+04  -1.240E+01  -5.036E+01  -1.239E+02  +1.548E+01  -7.768E+01  +1.409E+01  +1.705E+02

element # = 1067     type =4-n tetrahedron
 XX         YY         ZZ         SIGXX       SIGYY       SIGZZ       TAUXY       TAUYZ       TAUZX       SIGV
  +1.38E+04  +4.89E+05  +2.94E+04  -4.737E+02  -7.909E+03  -8.631E+02  +4.015E+02  -4.482E+02  -1.375E+02  +7.327E+03
  +3.62E+04  +4.69E+05  +6.95E+03  -4.737E+02  -7.909E+03  -8.631E+02  +4.015E+02  -4.482E+02  -1.375E+02  +7.327E+03
  +3.62E+04  +4.90E+05  +6.95E+03  -4.737E+02  -7.909E+03  -8.631E+02  +4.015E+02  -4.482E+02  -1.375E+02  +7.327E+03
  +1.38E+04  +4.79E+05  +6.95E+03  -4.737E+02  -7.909E+03  -8.631E+02  +4.015E+02  -4.482E+02  -1.375E+02  +7.327E+03

element # = 1068     type =4-n tetrahedron
 XX         YY         ZZ         SIGXX       SIGYY       SIGZZ       TAUXY       TAUYZ       TAUZX       SIGV
  +3.55E+04  +9.95E+05  +1.75E+04  +7.092E-01  -3.671E+01  -2.108E+01  -1.043E+01  -2.852E+01  -2.754E+00  +6.204E+01
  +4.07E+04  +9.95E+05  +4.05E+04  +7.092E-01  -3.671E+01  -2.108E+01  -1.043E+01  -2.852E+01  -2.754E+00  +6.204E+01
  +3.35E+04  +9.80E+05  +3.29E+04  +7.092E-01  -3.671E+01  -2.108E+01  -1.043E+01  -2.852E+01  -2.754E+00  +6.204E+01
  +1.76E+04  +9.95E+05  +3.53E+04  +7.092E-01  -3.671E+01  -2.108E+01  -1.043E+01  -2.852E+01  -2.754E+00  +6.204E+01

element # = 1069     type =4-n tetrahedron
 XX         YY         ZZ         SIGXX       SIGYY       SIGZZ       TAUXY       TAUYZ       TAUZX       SIGV
  +1.24E+04  +5.33E+05  +1.48E+05  +4.001E+02  +3.959E+03  +3.241E+01  +1.003E+02  -1.596E+03  -5.895E+01  +4.668E+03
  +3.47E+04  +5.16E+05  +1.34E+05  +4.001E+02  +3.959E+03  +3.241E+01  +1.003E+02  -1.596E+03  -5.895E+01  +4.668E+03
  +1.24E+04  +5.11E+05  +1.48E+05  +4.001E+02  +3.959E+03  +3.241E+01  +1.003E+02  -1.596E+03  -5.895E+01  +4.668E+03
  +3.02E+04  +5.24E+05  +1.55E+05  +4.001E+02  +3.959E+03  +3.241E+01  +1.003E+02  -1.596E+03  -5.895E+01  +4.668E+03

element # = 1070     type =4-n tetrahedron
 XX         YY         ZZ         SIGXX       SIGYY       SIGZZ       TAUXY       TAUYZ       TAUZX       SIGV
  +1.69E+05  +4.81E+05  +1.03E+05  +3.327E+02  +1.332E+03  -1.238E+02  +2.438E+02  -1.234E+03  +2.922E+02  +2.582E+03
  +1.39E+05  +4.95E+05  +1.22E+05  +3.327E+02  +1.332E+03  -1.238E+02  +2.438E+02  -1.234E+03  +2.922E+02  +2.582E+03
  +1.26E+05  +4.69E+05  +1.11E+05  +3.327E+02  +1.332E+03  -1.238E+02  +2.438E+02  -1.234E+03  +2.922E+02  +2.582E+03
  +1.41E+05  +4.98E+05  +8.68E+04  +3.327E+02  +1.332E+03  -1.238E+02  +2.438E+02  -1.234E+03  +2.922E+02  +2.582E+03

element # = 1071     type =4-n tetrahedron
 XX         YY         ZZ         SIGXX       SIGYY       SIGZZ       TAUXY       TAUYZ       TAUZX       SIGV
  +1.82E+05  +4.92E+05  +1.01E+05  -5.526E+02  -6.846E+01  -8.216E+02  -1.305E+02  -1.316E+03  +2.488E+02  +2.423E+03
  +1.82E+05  +5.13E+05  +1.01E+05  -5.526E+02  -6.846E+01  -8.216E+02  -1.305E+02  -1.316E+03  +2.488E+02  +2.423E+03
  +1.52E+05  +5.05E+05  +1.19E+05  -5.526E+02  -6.846E+01  -8.216E+02  -1.305E+02  -1.316E+03  +2.488E+02  +2.423E+03
  +1.55E+05  +5.08E+05  +8.43E+04  -5.526E+02  -6.846E+01  -8.216E+02  -1.305E+02  -1.316E+03  +2.488E+02  +2.423E+03

element # = 1072     type =4-n tetrahedron
 XX         YY         ZZ         SIGXX       SIGYY       SIGZZ       TAUXY       TAUYZ       TAUZX       SIGV
  +9.63E+04  +5.19E+05  +8.17E+04  +5.195E+01  -1.057E+03  -1.507E+03  -3.743E+02  -2.532E+03  +2.214E+02  +4.662E+03
  +1.01E+05  +4.74E+05  +9.78E+04  +5.195E+01  -1.057E+03  -1.507E+03  -3.743E+02  -2.532E+03  +2.214E+02  +4.662E+03
  +1.17E+05  +5.03E+05  +7.35E+04  +5.195E+01  -1.057E+03  -1.507E+03  -3.743E+02  -2.532E+03  +2.214E+02  +4.662E+03
  +8.26E+04  +4.83E+05  +7.35E+04  +5.195E+01  -1.057E+03  -1.507E+03  -3.743E+02  -2.532E+03  +2.214E+02  +4.662E+03

element # = 1073     type =4-n tetrahedron
 XX         YY         ZZ         SIGXX       SIGYY       SIGZZ       TAUXY       TAUYZ       TAUZX       SIGV
  +1.08E+04  +3.26E+04  +1.90E+05  +6.768E+03  +2.724E+04  +7.814E+03  +1.957E+02  -2.750E+03  +2.361E+03  +2.094E+04
  +1.08E+04  +1.13E+04  +1.72E+05  +6.768E+03  +2.724E+04  +7.814E+03  +1.957E+02  -2.750E+03  +2.361E+03  +2.094E+04
  +2.87E+04  +1.13E+04  +1.90E+05  +6.768E+03  +2.724E+04  +7.814E+03  +1.957E+02  -2.750E+03  +2.361E+03  +2.094E+04
  +2.80E+04  +2.64E+04  +1.77E+05  +6.768E+03  +2.724E+04  +7.814E+03  +1.957E+02  -2.750E+03  +2.361E+03  +2.094E+04

element # = 1074     type =4-n tetrahedron
 XX         YY         ZZ         SIGXX       SIGYY       SIGZZ       TAUXY       TAUYZ       TAUZX       SIGV
  +9.39E+04  +5.24E+05  +1.00E+05  +4.912E+02  +1.767E+03  +1.405E+03  -1.708E+02  -4.423E+02  -3.271E+02  +1.514E+03
  +9.87E+04  +4.79E+05  +1.16E+05  +4.912E+02  +1.767E+03  +1.405E+03  -1.708E+02  -4.423E+02  -3.271E+02  +1.514E+03
  +7.47E+04  +5.07E+05  +1.17E+05  +4.912E+02  +1.767E+03  +1.405E+03  -1.708E+02  -4.423E+02  -3.271E+02  +1.514E+03
  +1.12E+05  +5.04E+05  +1.27E+05  +4.912E+02  +1.767E+03  +1.405E+03  -1.708E+02  -4.423E+02  -3.271E+02  +1.514E+03

element # = 1075     type =4-n tetrahedron
 XX         YY         ZZ         SIGXX       SIGYY       SIGZZ       TAUXY       TAUYZ       TAUZX       SIGV
  +8.41E+04  +5.19E+05  +8.94E+04  -2.055E+02  -4.890E+02  -1.119E+02  -7.707E+02  -2.036E+03  -1.084E+02  +3.791E+03
  +8.90E+04  +4.74E+05  +1.05E+05  -2.055E+02  -4.890E+02  -1.119E+02  -7.707E+02  -2.036E+03  -1.084E+02  +3.791E+03
  +7.04E+04  +4.83E+05  +8.11E+04  -2.055E+02  -4.890E+02  -1.119E+02  -7.707E+02  -2.036E+03  -1.084E+02  +3.791E+03
  +6.50E+04  +5.02E+05  +1.06E+05  -2.055E+02  -4.890E+02  -1.119E+02  -7.707E+02  -2.036E+03  -1.084E+02  +3.791E+03

element # = 1076     type =4-n tetrahedron
 XX         YY         ZZ         SIGXX       SIGYY       SIGZZ       TAUXY       TAUYZ       TAUZX       SIGV
  +7.04E+04  +1.97E+04  +1.90E+05  +6.328E+03  +2.999E+04  +2.453E+03  -4.668E+01  -1.821E+03  +7.506E+02  +2.604E+04
  +7.04E+04  +4.33E+04  +1.71E+05  +6.328E+03  +2.999E+04  +2.453E+03  -4.668E+01  -1.821E+03  +7.506E+02  +2.604E+04
  +5.81E+04  +4.47E+04  +1.90E+05  +6.328E+03  +2.999E+04  +2.453E+03  -4.668E+01  -1.821E+03  +7.506E+02  +2.604E+04
  +5.18E+04  +3.48E+04  +1.76E+05  +6.328E+03  +2.999E+04  +2.453E+03  -4.668E+01  -1.821E+03  +7.506E+02  +2.604E+04

element # = 1077     type =4-n tetrahedron
 XX         YY         ZZ         SIGXX       SIGYY       SIGZZ       TAUXY       TAUYZ       TAUZX       SIGV
  +8.55E+04  +1.29E+04  +1.88E+05  +7.575E+03  +2.408E+04  +5.678E+03  +5.889E+03  -3.805E+03  -3.381E+03  +2.211E+04
  +9.45E+04  +1.29E+04  +1.69E+05  +7.575E+03  +2.408E+04  +5.678E+03  +5.889E+03  -3.805E+03  -3.381E+03  +2.211E+04
  +9.45E+04  +3.13E+04  +1.88E+05  +7.575E+03  +2.408E+04  +5.678E+03  +5.889E+03  -3.805E+03  -3.381E+03  +2.211E+04
  +8.55E+04  +3.65E+04  +1.69E+05  +7.575E+03  +2.408E+04  +5.678E+03  +5.889E+03  -3.805E+03  -3.381E+03  +2.211E+04

element # = 1078     type =4-n tetrahedron
 XX         YY         ZZ         SIGXX       SIGYY       SIGZZ       TAUXY       TAUYZ       TAUZX       SIGV
  +1.93E+05  +5.65E+04  +1.93E+05  +2.588E+03  +2.481E+04  -7.583E+02  -1.140E+02  -1.984E+03  -2.106E+03  +2.459E+04
  +1.93E+05  +6.02E+04  +1.69E+05  +2.588E+03  +2.481E+04  -7.583E+02  -1.140E+02  -1.984E+03  -2.106E+03  +2.459E+04
  +1.93E+05  +7.78E+04  +1.93E+05  +2.588E+03  +2.481E+04  -7.583E+02  -1.140E+02  -1.984E+03  -2.106E+03  +2.459E+04
  +1.69E+05  +6.02E+04  +1.93E+05  +2.588E+03  +2.481E+04  -7.583E+02  -1.140E+02  -1.984E+03  -2.106E+03  +2.459E+04

element # = 1079     type =4-n tetrahedron
 XX         YY         ZZ         SIGXX       SIGYY       SIGZZ       TAUXY       TAUYZ       TAUZX       SIGV
  +4.62E+04  +9.43E+05  +1.42E+05  +4.649E+01  +1.925E+02  -3.162E+02  +7.506E+00  -1.732E+02  -5.536E+00  +5.441E+02
  +4.57E+04  +9.48E+05  +1.61E+05  +4.649E+01  +1.925E+02  -3.162E+02  +7.506E+00  -1.732E+02  -5.536E+00  +5.441E+02
  +5.98E+04  +9.26E+05  +1.58E+05  +4.649E+01  +1.925E+02  -3.162E+02  +7.506E+00  -1.732E+02  -5.536E+00  +5.441E+02
  +4.08E+04  +9.28E+05  +1.58E+05  +4.649E+01  +1.925E+02  -3.162E+02  +7.506E+00  -1.732E+02  -5.536E+00  +5.441E+02

element # = 1080     type =4-n tetrahedron
 XX         YY         ZZ         SIGXX       SIGYY       SIGZZ       TAUXY       TAUYZ       TAUZX       SIGV
  +1.00E+05  +5.66E+03  +1.75E+05  +1.582E+04  +3.690E+04  +1.582E+04  -1.278E+02  -8.034E+03  +0.000E+00  +2.527E+04
  +9.11E+04  +5.66E+03  +1.94E+05  +1.582E+04  +3.690E+04  +1.582E+04  -1.278E+02  -8.034E+03  +0.000E+00  +2.527E+04
  +1.00E+05  +2.40E+04  +1.94E+05  +1.582E+04  +3.690E+04  +1.582E+04  -1.278E+02  -8.034E+03  +0.000E+00  +2.527E+04
  +1.09E+05  +5.66E+03  +1.94E+05  +1.582E+04  +3.690E+04  +1.582E+04  -1.278E+02  -8.034E+03  +0.000E+00  +2.527E+04

element # = 1081     type =4-n tetrahedron
 XX         YY         ZZ         SIGXX       SIGYY       SIGZZ       TAUXY       TAUYZ       TAUZX       SIGV
  +1.09E+05  +4.49E+05  +1.45E+05  +1.760E+03  +9.697E+03  +4.978E+02  -4.499E+02  -1.524E+03  +4.238E+02  +9.095E+03
  +1.07E+05  +4.62E+05  +1.82E+05  +1.760E+03  +9.697E+03  +4.978E+02  -4.499E+02  -1.524E+03  +4.238E+02  +9.095E+03
  +1.30E+05  +4.48E+05  +1.61E+05  +1.760E+03  +9.697E+03  +4.978E+02  -4.499E+02  -1.524E+03  +4.238E+02  +9.095E+03
  +1.07E+05  +4.40E+05  +1.82E+05  +1.760E+03  +9.697E+03  +4.978E+02  -4.499E+02  -1.524E+03  +4.238E+02  +9.095E+03

element # = 1082     type =4-n tetrahedron
 XX         YY         ZZ         SIGXX       SIGYY       SIGZZ       TAUXY       TAUYZ       TAUZX       SIGV
  +1.19E+04  +5.42E+05  +1.05E+05  -4.306E+01  +1.998E+02  -6.717E+02  +2.229E+00  -1.032E+03  -8.420E+01  +1.955E+03
  +3.11E+04  +5.64E+05  +1.25E+05  -4.306E+01  +1.998E+02  -6.717E+02  +2.229E+00  -1.032E+03  -8.420E+01  +1.955E+03
  +1.19E+04  +5.64E+05  +1.05E+05  -4.306E+01  +1.998E+02  -6.717E+02  +2.229E+00  -1.032E+03  -8.420E+01  +1.955E+03
  +3.14E+04  +5.64E+05  +9.95E+04  -4.306E+01  +1.998E+02  -6.717E+02  +2.229E+00  -1.032E+03  -8.420E+01  +1.955E+03

element # = 1083     type =4-n tetrahedron
 XX         YY         ZZ         SIGXX       SIGYY       SIGZZ       TAUXY       TAUYZ       TAUZX       SIGV
  +1.13E+05  +5.51E+05  +8.36E+04  -9.337E+02  -3.086E+03  -8.859E+02  -3.127E+00  -1.013E+03  -7.363E+02  +3.073E+03
  +1.33E+05  +5.67E+05  +7.04E+04  -9.337E+02  -3.086E+03  -8.859E+02  -3.127E+00  -1.013E+03  -7.363E+02  +3.073E+03
  +1.33E+05  +5.35E+05  +7.54E+04  -9.337E+02  -3.086E+03  -8.859E+02  -3.127E+00  -1.013E+03  -7.363E+02  +3.073E+03
  +1.36E+05  +5.56E+05  +1.11E+05  -9.337E+02  -3.086E+03  -8.859E+02  -3.127E+00  -1.013E+03  -7.363E+02  +3.073E+03

element # = 1084     type =4-n tetrahedron
 XX         YY         ZZ         SIGXX       SIGYY       SIGZZ       TAUXY       TAUYZ       TAUZX       SIGV
  +1.30E+05  +5.20E+05  +1.23E+05  +1.144E+03  +2.816E+03  +3.553E+02  +9.483E+02  -1.553E+03  -3.436E+02  +3.876E+03
  +1.12E+05  +5.40E+05  +9.59E+04  +1.144E+03  +2.816E+03  +3.553E+02  +9.483E+02  -1.553E+03  -3.436E+02  +3.876E+03
  +1.32E+05  +5.24E+05  +8.77E+04  +1.144E+03  +2.816E+03  +3.553E+02  +9.483E+02  -1.553E+03  -3.436E+02  +3.876E+03
  +1.35E+05  +5.45E+05  +1.23E+05  +1.144E+03  +2.816E+03  +3.553E+02  +9.483E+02  -1.553E+03  -3.436E+02  +3.876E+03

element # = 1085     type =4-n tetrahedron
 XX         YY         ZZ         SIGXX       SIGYY       SIGZZ       TAUXY       TAUYZ       TAUZX       SIGV
  +8.11E+04  +4.60E+05  +1.10E+05  +3.782E+00  +1.627E+03  +4.310E+01  -3.314E+01  -2.009E+03  +4.515E+02  +3.910E+03
  +6.26E+04  +4.69E+05  +8.60E+04  +3.782E+00  +1.627E+03  +4.310E+01  -3.314E+01  -2.009E+03  +4.515E+02  +3.910E+03
  +5.71E+04  +4.88E+05  +1.11E+05  +3.782E+00  +1.627E+03  +4.310E+01  -3.314E+01  -2.009E+03  +4.515E+02  +3.910E+03
  +5.09E+04  +4.62E+05  +1.10E+05  +3.782E+00  +1.627E+03  +4.310E+01  -3.314E+01  -2.009E+03  +4.515E+02  +3.910E+03

element # = 1086     type =4-n tetrahedron
 XX         YY         ZZ         SIGXX       SIGYY       SIGZZ       TAUXY       TAUYZ       TAUZX       SIGV
  +6.91E+03  +4.99E+05  +2.94E+04  -5.156E+01  -8.504E+03  -1.497E+02  +2.606E+02  -9.545E+02  +3.174E+02  +8.594E+03
  +2.93E+04  +5.00E+05  +6.95E+03  -5.156E+01  -8.504E+03  -1.497E+02  +2.606E+02  -9.545E+02  +3.174E+02  +8.594E+03
  +6.91E+03  +5.10E+05  +6.95E+03  -5.156E+01  -8.504E+03  -1.497E+02  +2.606E+02  -9.545E+02  +3.174E+02  +8.594E+03
  +6.91E+03  +4.89E+05  +6.95E+03  -5.156E+01  -8.504E+03  -1.497E+02  +2.606E+02  -9.545E+02  +3.174E+02  +8.594E+03

element # = 1087     type =4-n tetrahedron
 XX         YY         ZZ         SIGXX       SIGYY       SIGZZ       TAUXY       TAUYZ       TAUZX       SIGV
  +2.74E+04  +4.40E+05  +1.03E+05  +8.112E+02  +1.240E+03  +1.288E+03  +1.108E+01  -1.623E+03  -1.793E+02  +2.865E+03
  +1.12E+04  +4.40E+05  +7.35E+04  +8.112E+02  +1.240E+03  +1.288E+03  +1.108E+01  -1.623E+03  -1.793E+02  +2.865E+03
  +1.12E+04  +4.26E+05  +9.65E+04  +8.112E+02  +1.240E+03  +1.288E+03  +1.108E+01  -1.623E+03  -1.793E+02  +2.865E+03
  +3.15E+04  +4.20E+05  +9.58E+04  +8.112E+02  +1.240E+03  +1.288E+03  +1.108E+01  -1.623E+03  -1.793E+02  +2.865E+03

element # = 1088     type =4-n tetrahedron
 XX         YY         ZZ         SIGXX       SIGYY       SIGZZ       TAUXY       TAUYZ       TAUZX       SIGV
  +2.11E+04  +4.50E+05  +1.03E+05  -1.672E+02  +6.545E+02  +1.855E+02  +1.580E+02  -2.040E+03  +3.872E+02  +3.677E+03
  +4.98E+03  +4.49E+05  +7.35E+04  -1.672E+02  +6.545E+02  +1.855E+02  +1.580E+02  -2.040E+03  +3.872E+02  +3.677E+03
  +4.98E+03  +4.59E+05  +9.61E+04  -1.672E+02  +6.545E+02  +1.855E+02  +1.580E+02  -2.040E+03  +3.872E+02  +3.677E+03
  +4.98E+03  +4.36E+05  +9.66E+04  -1.672E+02  +6.545E+02  +1.855E+02  +1.580E+02  -2.040E+03  +3.872E+02  +3.677E+03

element # = 1089     type =4-n tetrahedron
 XX         YY         ZZ         SIGXX       SIGYY       SIGZZ       TAUXY       TAUYZ       TAUZX       SIGV
  +1.52E+05  +8.98E+05  +1.71E+05  -4.581E+01  +1.631E+02  -5.558E+02  +2.843E+01  -1.366E+02  -9.494E+00  +6.848E+02
  +1.78E+05  +9.05E+05  +1.93E+05  -4.581E+01  +1.631E+02  -5.558E+02  +2.843E+01  -1.366E+02  -9.494E+00  +6.848E+02
  +1.55E+05  +8.97E+05  +1.93E+05  -4.581E+01  +1.631E+02  -5.558E+02  +2.843E+01  -1.366E+02  -9.494E+00  +6.848E+02
  +1.54E+05  +9.23E+05  +1.93E+05  -4.581E+01  +1.631E+02  -5.558E+02  +2.843E+01  -1.366E+02  -9.494E+00  +6.848E+02

element # = 1090     type =4-n tetrahedron
 XX         YY         ZZ         SIGXX       SIGYY       SIGZZ       TAUXY       TAUYZ       TAUZX       SIGV
  +1.02E+05  +9.39E+05  +1.57E+05  +1.899E+01  +2.025E+02  -2.959E+02  -2.514E+01  -1.979E+02  +1.115E+01  +5.571E+02
  +1.23E+05  +9.08E+05  +1.50E+05  +1.899E+01  +2.025E+02  -2.959E+02  -2.514E+01  -1.979E+02  +1.115E+01  +5.571E+02
  +1.11E+05  +9.33E+05  +1.34E+05  +1.899E+01  +2.025E+02  -2.959E+02  -2.514E+01  -1.979E+02  +1.115E+01  +5.571E+02
  +9.24E+04  +9.19E+05  +1.55E+05  +1.899E+01  +2.025E+02  -2.959E+02  -2.514E+01  -1.979E+02  +1.115E+01  +5.571E+02

element # = 1091     type =4-n tetrahedron
 XX         YY         ZZ         SIGXX       SIGYY       SIGZZ       TAUXY       TAUYZ       TAUZX       SIGV
  +8.28E+04  +7.09E+05  +1.64E+05  +4.465E+02  +3.069E+03  -1.962E+01  -2.465E+02  -2.477E+02  -2.006E+02  +2.967E+03
  +6.47E+04  +7.04E+05  +1.70E+05  +4.465E+02  +3.069E+03  -1.962E+01  -2.465E+02  -2.477E+02  -2.006E+02  +2.967E+03
  +9.00E+04  +7.08E+05  +1.87E+05  +4.465E+02  +3.069E+03  -1.962E+01  -2.465E+02  -2.477E+02  -2.006E+02  +2.967E+03
  +9.00E+04  +6.86E+05  +1.87E+05  +4.465E+02  +3.069E+03  -1.962E+01  -2.465E+02  -2.477E+02  -2.006E+02  +2.967E+03

element # = 1092     type =4-n tetrahedron
 XX         YY         ZZ         SIGXX       SIGYY       SIGZZ       TAUXY       TAUYZ       TAUZX       SIGV
  +5.96E+04  +9.35E+05  +1.30E+05  -4.349E+01  +4.358E+01  -4.342E+02  -5.514E+00  -2.160E+02  -4.144E+00  +5.782E+02
  +6.53E+04  +9.02E+05  +1.31E+05  -4.349E+01  +4.358E+01  -4.342E+02  -5.514E+00  -2.160E+02  -4.144E+00  +5.782E+02
  +7.32E+04  +9.17E+05  +1.46E+05  -4.349E+01  +4.358E+01  -4.342E+02  -5.514E+00  -2.160E+02  -4.144E+00  +5.782E+02
  +9.14E+04  +9.31E+05  +1.25E+05  -4.349E+01  +4.358E+01  -4.342E+02  -5.514E+00  -2.160E+02  -4.144E+00  +5.782E+02

element # = 1093     type =4-n tetrahedron
 XX         YY         ZZ         SIGXX       SIGYY       SIGZZ       TAUXY       TAUYZ       TAUZX       SIGV
  +1.41E+05  +8.71E+05  +8.58E+03  +6.857E+01  -5.653E+02  -6.194E+01  -7.407E+01  -2.629E+02  -4.048E+01  +7.516E+02
  +1.36E+05  +8.54E+05  +3.63E+04  +6.857E+01  -5.653E+02  -6.194E+01  -7.407E+01  -2.629E+02  -4.048E+01  +7.516E+02
  +1.41E+05  +8.48E+05  +8.58E+03  +6.857E+01  -5.653E+02  -6.194E+01  -7.407E+01  -2.629E+02  -4.048E+01  +7.516E+02
  +1.19E+05  +8.60E+05  +8.58E+03  +6.857E+01  -5.653E+02  -6.194E+01  -7.407E+01  -2.629E+02  -4.048E+01  +7.516E+02

element # = 1094     type =4-n tetrahedron
 XX         YY         ZZ         SIGXX       SIGYY       SIGZZ       TAUXY       TAUYZ       TAUZX       SIGV
  +8.23E+04  +8.59E+05  +2.20E+04  -4.732E+01  -4.744E+02  -1.511E+02  +2.919E+00  -3.082E+02  -2.823E+01  +6.605E+02
  +7.31E+04  +8.62E+05  +5.75E+04  -4.732E+01  -4.744E+02  -1.511E+02  +2.919E+00  -3.082E+02  -2.823E+01  +6.605E+02
  +6.07E+04  +8.44E+05  +3.87E+04  -4.732E+01  -4.744E+02  -1.511E+02  +2.919E+00  -3.082E+02  -2.823E+01  +6.605E+02
  +5.58E+04  +8.65E+05  +4.07E+04  -4.732E+01  -4.744E+02  -1.511E+02  +2.919E+00  -3.082E+02  -2.823E+01  +6.605E+02

element # = 1095     type =4-n tetrahedron
 XX         YY         ZZ         SIGXX       SIGYY       SIGZZ       TAUXY       TAUYZ       TAUZX       SIGV
  +1.32E+05  +8.84E+05  +1.51E+04  +5.292E+01  -2.521E+02  -3.122E+01  -4.296E+01  -2.468E+02  +2.799E+01  +5.149E+02
  +1.02E+05  +9.02E+05  +3.62E+04  +5.292E+01  -2.521E+02  -3.122E+01  -4.296E+01  -2.468E+02  +2.799E+01  +5.149E+02
  +1.27E+05  +8.67E+05  +4.29E+04  +5.292E+01  -2.521E+02  -3.122E+01  -4.296E+01  -2.468E+02  +2.799E+01  +5.149E+02
  +1.10E+05  +8.73E+05  +1.51E+04  +5.292E+01  -2.521E+02  -3.122E+01  -4.296E+01  -2.468E+02  +2.799E+01  +5.149E+02

element # = 1096     type =4-n tetrahedron
 XX         YY         ZZ         SIGXX       SIGYY       SIGZZ       TAUXY       TAUYZ       TAUZX       SIGV
  +5.58E+04  +9.52E+05  +1.72E+05  -4.864E+01  +4.186E+01  -5.262E+02  -6.584E+00  -7.302E+01  -6.694E+00  +5.438E+02
  +7.97E+04  +9.49E+05  +1.72E+05  -4.864E+01  +4.186E+01  -5.262E+02  -6.584E+00  -7.302E+01  -6.694E+00  +5.438E+02
  +6.99E+04  +9.30E+05  +1.69E+05  -4.864E+01  +4.186E+01  -5.262E+02  -6.584E+00  -7.302E+01  -6.694E+00  +5.438E+02
  +6.02E+04  +9.44E+05  +1.86E+05  -4.864E+01  +4.186E+01  -5.262E+02  -6.584E+00  -7.302E+01  -6.694E+00  +5.438E+02

element # = 1097     type =4-n tetrahedron
 XX         YY         ZZ         SIGXX       SIGYY       SIGZZ       TAUXY       TAUYZ       TAUZX       SIGV
  +1.92E+05  +9.10E+05  +1.20E+05  +3.534E+01  +2.435E+02  -2.448E+02  +2.271E+00  -3.339E+02  -2.026E+00  +7.174E+02
  +1.92E+05  +8.98E+05  +1.43E+05  +3.534E+01  +2.435E+02  -2.448E+02  +2.271E+00  -3.339E+02  -2.026E+00  +7.174E+02
  +1.66E+05  +8.99E+05  +1.43E+05  +3.534E+01  +2.435E+02  -2.448E+02  +2.271E+00  -3.339E+02  -2.026E+00  +7.174E+02
  +1.92E+05  +9.24E+05  +1.42E+05  +3.534E+01  +2.435E+02  -2.448E+02  +2.271E+00  -3.339E+02  -2.026E+00  +7.174E+02

element # = 1098     type =4-n tetrahedron
 XX         YY         ZZ         SIGXX       SIGYY       SIGZZ       TAUXY       TAUYZ       TAUZX       SIGV
  +1.51E+05  +9.77E+05  +1.51E+05  -5.611E+01  -7.525E+00  -4.507E+02  -5.547E+00  -6.676E+01  +1.077E+01  +4.371E+02
  +1.50E+05  +9.52E+05  +1.74E+05  -5.611E+01  -7.525E+00  -4.507E+02  -5.547E+00  -6.676E+01  +1.077E+01  +4.371E+02
  +1.74E+05  +9.52E+05  +1.50E+05  -5.611E+01  -7.525E+00  -4.507E+02  -5.547E+00  -6.676E+01  +1.077E+01  +4.371E+02
  +1.36E+05  +9.51E+05  +1.36E+05  -5.611E+01  -7.525E+00  -4.507E+02  -5.547E+00  -6.676E+01  +1.077E+01  +4.371E+02

element # = 1099     type =4-n tetrahedron
 XX         YY         ZZ         SIGXX       SIGYY       SIGZZ       TAUXY       TAUYZ       TAUZX       SIGV
  +1.41E+05  +6.79E+05  +1.91E+05  -5.695E+01  +3.366E+03  -2.338E+02  +3.067E+02  -4.657E+02  +8.706E+01  +3.649E+03
  +1.36E+05  +6.72E+05  +1.63E+05  -5.695E+01  +3.366E+03  -2.338E+02  +3.067E+02  -4.657E+02  +8.706E+01  +3.649E+03
  +1.19E+05  +6.68E+05  +1.91E+05  -5.695E+01  +3.366E+03  -2.338E+02  +3.067E+02  -4.657E+02  +8.706E+01  +3.649E+03
  +1.41E+05  +6.58E+05  +1.91E+05  -5.695E+01  +3.366E+03  -2.338E+02  +3.067E+02  -4.657E+02  +8.706E+01  +3.649E+03

element # = 1100     type =4-n tetrahedron
 XX         YY         ZZ         SIGXX       SIGYY       SIGZZ       TAUXY       TAUYZ       TAUZX       SIGV
  +9.54E+04  +9.26E+05  +9.61E+04  +1.294E+01  -1.148E+02  -1.378E+02  -6.057E+00  -2.537E+02  -1.281E+01  +4.621E+02
  +6.21E+04  +9.13E+05  +8.07E+04  +1.294E+01  -1.148E+02  -1.378E+02  -6.057E+00  -2.537E+02  -1.281E+01  +4.621E+02
  +7.95E+04  +8.93E+05  +8.02E+04  +1.294E+01  -1.148E+02  -1.378E+02  -6.057E+00  -2.537E+02  -1.281E+01  +4.621E+02
  +8.10E+04  +9.19E+05  +6.57E+04  +1.294E+01  -1.148E+02  -1.378E+02  -6.057E+00  -2.537E+02  -1.281E+01  +4.621E+02

element # = 1101     type =4-n tetrahedron
 XX         YY         ZZ         SIGXX       SIGYY       SIGZZ       TAUXY       TAUYZ       TAUZX       SIGV
  +1.29E+04  +8.26E+05  +5.36E+04  -5.153E+01  -6.631E+02  -1.971E+02  -3.238E+01  -5.231E+02  -1.583E+01  +1.063E+03
  +1.29E+04  +8.05E+05  +5.36E+04  -5.153E+01  -6.631E+02  -1.971E+02  -3.238E+01  -5.231E+02  -1.583E+01  +1.063E+03
  +3.17E+04  +8.22E+05  +7.04E+04  -5.153E+01  -6.631E+02  -1.971E+02  -3.238E+01  -5.231E+02  -1.583E+01  +1.063E+03
  +3.60E+04  +8.22E+05  +4.79E+04  -5.153E+01  -6.631E+02  -1.971E+02  -3.238E+01  -5.231E+02  -1.583E+01  +1.063E+03

element # = 1102     type =4-n tetrahedron
 XX         YY         ZZ         SIGXX       SIGYY       SIGZZ       TAUXY       TAUYZ       TAUZX       SIGV
  +1.86E+05  +6.22E+05  +6.91E+03  -3.564E+02  -4.449E+03  -6.569E+02  -2.885E+02  -3.227E+02  +1.538E+01  +4.022E+03
  +1.64E+05  +6.33E+05  +6.91E+03  -3.564E+02  -4.449E+03  -6.569E+02  -2.885E+02  -3.227E+02  +1.538E+01  +4.022E+03
  +1.86E+05  +6.33E+05  +2.93E+04  -3.564E+02  -4.449E+03  -6.569E+02  -2.885E+02  -3.227E+02  +1.538E+01  +4.022E+03
  +1.64E+05  +6.12E+05  +6.91E+03  -3.564E+02  -4.449E+03  -6.569E+02  -2.885E+02  -3.227E+02  +1.538E+01  +4.022E+03

element # = 1103     type =4-n tetrahedron
 XX         YY         ZZ         SIGXX       SIGYY       SIGZZ       TAUXY       TAUYZ       TAUZX       SIGV
  +1.14E+04  +6.85E+05  +4.13E+04  +1.098E+02  -1.545E+03  +3.315E+02  +3.220E+00  -7.090E+02  +1.027E+02  +2.167E+03
  +3.07E+04  +6.91E+05  +3.95E+04  +1.098E+02  -1.545E+03  +3.315E+02  +3.220E+00  -7.090E+02  +1.027E+02  +2.167E+03
  +1.14E+04  +6.74E+05  +1.89E+04  +1.098E+02  -1.545E+03  +3.315E+02  +3.220E+00  -7.090E+02  +1.027E+02  +2.167E+03
  +2.89E+04  +6.71E+05  +3.70E+04  +1.098E+02  -1.545E+03  +3.315E+02  +3.220E+00  -7.090E+02  +1.027E+02  +2.167E+03

element # = 1104     type =4-n tetrahedron
 XX         YY         ZZ         SIGXX       SIGYY       SIGZZ       TAUXY       TAUYZ       TAUZX       SIGV
  +6.84E+04  +1.16E+05  +3.76E+04  -1.460E+03  -1.981E+04  -3.424E+02  +1.227E+03  +2.786E+02  +3.095E+02  +1.906E+04
  +8.10E+04  +9.63E+04  +1.21E+04  -1.460E+03  -1.981E+04  -3.424E+02  +1.227E+03  +2.786E+02  +3.095E+02  +1.906E+04
  +5.88E+04  +1.08E+05  +1.21E+04  -1.460E+03  -1.981E+04  -3.424E+02  +1.227E+03  +2.786E+02  +3.095E+02  +1.906E+04
  +5.40E+04  +9.37E+04  +2.59E+04  -1.460E+03  -1.981E+04  -3.424E+02  +1.227E+03  +2.786E+02  +3.095E+02  +1.906E+04

element # = 1105     type =4-n tetrahedron
 XX         YY         ZZ         SIGXX       SIGYY       SIGZZ       TAUXY       TAUYZ       TAUZX       SIGV
  +5.81E+03  +8.24E+05  +6.23E+04  -2.718E+02  -7.765E+02  -3.575E+02  +1.081E+02  -6.801E+02  +6.426E+01  +1.286E+03
  +5.81E+03  +8.14E+05  +8.45E+04  -2.718E+02  -7.765E+02  -3.575E+02  +1.081E+02  -6.801E+02  +6.426E+01  +1.286E+03
  +2.46E+04  +8.20E+05  +7.91E+04  -2.718E+02  -7.765E+02  -3.575E+02  +1.081E+02  -6.801E+02  +6.426E+01  +1.286E+03
  +5.81E+03  +8.03E+05  +6.22E+04  -2.718E+02  -7.765E+02  -3.575E+02  +1.081E+02  -6.801E+02  +6.426E+01  +1.286E+03

element # = 1106     type =4-n tetrahedron
 XX         YY         ZZ         SIGXX       SIGYY       SIGZZ       TAUXY       TAUYZ       TAUZX       SIGV
  +1.12E+05  +5.42E+05  +7.24E+03  -8.934E+02  -6.376E+03  -1.383E+03  -1.476E+02  -2.558E+02  +3.531E+02  +5.315E+03
  +1.30E+05  +5.69E+05  +3.07E+04  -8.934E+02  -6.376E+03  -1.383E+03  -1.476E+02  -2.558E+02  +3.531E+02  +5.315E+03
  +1.12E+05  +5.63E+05  +7.24E+03  -8.934E+02  -6.376E+03  -1.383E+03  -1.476E+02  -2.558E+02  +3.531E+02  +5.315E+03
  +1.35E+05  +5.53E+05  +7.24E+03  -8.934E+02  -6.376E+03  -1.383E+03  -1.476E+02  -2.558E+02  +3.531E+02  +5.315E+03

element # = 1107     type =4-n tetrahedron
 XX         YY         ZZ         SIGXX       SIGYY       SIGZZ       TAUXY       TAUYZ       TAUZX       SIGV
  +5.81E+03  +8.04E+05  +9.14E+04  +5.762E+01  +7.936E+01  -1.370E+02  -2.024E+01  -7.095E+02  +1.899E+01  +1.247E+03
  +5.81E+03  +7.93E+05  +6.91E+04  +5.762E+01  +7.936E+01  -1.370E+02  -2.024E+01  -7.095E+02  +1.899E+01  +1.247E+03
  +5.81E+03  +7.82E+05  +9.14E+04  +5.762E+01  +7.936E+01  -1.370E+02  -2.024E+01  -7.095E+02  +1.899E+01  +1.247E+03
  +2.46E+04  +8.10E+05  +8.60E+04  +5.762E+01  +7.936E+01  -1.370E+02  -2.024E+01  -7.095E+02  +1.899E+01  +1.247E+03

element # = 1108     type =4-n tetrahedron
 XX         YY         ZZ         SIGXX       SIGYY       SIGZZ       TAUXY       TAUYZ       TAUZX       SIGV
  +1.72E+05  +8.12E+05  +9.47E+04  -2.114E+02  -6.345E+02  -3.799E+02  -3.246E+01  -5.350E+02  +9.803E+01  +1.013E+03
  +1.44E+05  +8.29E+05  +7.77E+04  -2.114E+02  -6.345E+02  -3.799E+02  -3.246E+01  -5.350E+02  +9.803E+01  +1.013E+03
  +1.40E+05  +8.19E+05  +1.08E+05  -2.114E+02  -6.345E+02  -3.799E+02  -3.246E+01  -5.350E+02  +9.803E+01  +1.013E+03
  +1.41E+05  +7.88E+05  +8.09E+04  -2.114E+02  -6.345E+02  -3.799E+02  -3.246E+01  -5.350E+02  +9.803E+01  +1.013E+03

element # = 1109     type =4-n tetrahedron
 XX         YY         ZZ         SIGXX       SIGYY       SIGZZ       TAUXY       TAUYZ       TAUZX       SIGV
  +7.87E+04  +5.81E+05  +1.87E+05  -3.403E+02  +2.765E+03  -7.403E+02  -3.116E+02  -6.821E+02  +6.691E+01  +3.570E+03
  +5.64E+04  +5.91E+05  +1.87E+05  -3.403E+02  +2.765E+03  -7.403E+02  -3.116E+02  -6.821E+02  +6.691E+01  +3.570E+03
  +5.32E+04  +5.80E+05  +1.63E+05  -3.403E+02  +2.765E+03  -7.403E+02  -3.116E+02  -6.821E+02  +6.691E+01  +3.570E+03
  +5.78E+04  +6.00E+05  +1.71E+05  -3.403E+02  +2.765E+03  -7.403E+02  -3.116E+02  -6.821E+02  +6.691E+01  +3.570E+03

element # = 1110     type =4-n tetrahedron
 XX         YY         ZZ         SIGXX       SIGYY       SIGZZ       TAUXY       TAUYZ       TAUZX       SIGV
  +4.26E+04  +7.76E+05  +1.08E+05  +3.767E+01  -8.566E+01  -3.728E+02  -7.676E+00  -7.372E+02  -1.947E+01  +1.328E+03
  +2.24E+04  +7.76E+05  +9.69E+04  +3.767E+01  -8.566E+01  -3.728E+02  -7.676E+00  -7.372E+02  -1.947E+01  +1.328E+03
  +5.58E+04  +7.89E+05  +8.16E+04  +3.767E+01  -8.566E+01  -3.728E+02  -7.676E+00  -7.372E+02  -1.947E+01  +1.328E+03
  +4.12E+04  +8.04E+05  +9.15E+04  +3.767E+01  -8.566E+01  -3.728E+02  -7.676E+00  -7.372E+02  -1.947E+01  +1.328E+03

element # = 1111     type =4-n tetrahedron
 XX         YY         ZZ         SIGXX       SIGYY       SIGZZ       TAUXY       TAUYZ       TAUZX       SIGV
  +1.29E+05  +6.62E+05  +1.63E+05  +2.249E+02  +4.339E+03  +3.143E+02  +3.006E+02  -1.918E+02  +1.030E+02  +4.120E+03
  +1.12E+05  +6.37E+05  +1.91E+05  +2.249E+02  +4.339E+03  +3.143E+02  +3.006E+02  -1.918E+02  +1.030E+02  +4.120E+03
  +1.12E+05  +6.58E+05  +1.91E+05  +2.249E+02  +4.339E+03  +3.143E+02  +3.006E+02  -1.918E+02  +1.030E+02  +4.120E+03
  +1.34E+05  +6.48E+05  +1.91E+05  +2.249E+02  +4.339E+03  +3.143E+02  +3.006E+02  -1.918E+02  +1.030E+02  +4.120E+03

element # = 1112     type =4-n tetrahedron
 XX         YY         ZZ         SIGXX       SIGYY       SIGZZ       TAUXY       TAUYZ       TAUZX       SIGV
  +1.20E+04  +8.00E+05  +1.02E+05  -3.801E+00  -4.216E-02  -3.403E+02  -9.368E+00  -6.720E+02  +3.210E+01  +1.213E+03
  +1.20E+04  +7.78E+05  +1.02E+05  -3.801E+00  -4.216E-02  -3.403E+02  -9.368E+00  -6.720E+02  +3.210E+01  +1.213E+03
  +3.22E+04  +7.78E+05  +1.13E+05  -3.801E+00  -4.216E-02  -3.403E+02  -9.368E+00  -6.720E+02  +3.210E+01  +1.213E+03
  +3.08E+04  +8.06E+05  +9.62E+04  -3.801E+00  -4.216E-02  -3.403E+02  -9.368E+00  -6.720E+02  +3.210E+01  +1.213E+03

element # = 1113     type =4-n tetrahedron
 XX         YY         ZZ         SIGXX       SIGYY       SIGZZ       TAUXY       TAUYZ       TAUZX       SIGV
  +1.33E+05  +5.13E+05  +1.66E+05  +3.733E+02  +6.787E+03  +2.329E+02  +1.579E+02  -1.183E+03  -4.162E+02  +6.844E+03
  +1.41E+05  +5.11E+05  +1.92E+05  +3.733E+02  +6.787E+03  +2.329E+02  +1.579E+02  -1.183E+03  -4.162E+02  +6.844E+03
  +1.18E+05  +5.21E+05  +1.92E+05  +3.733E+02  +6.787E+03  +2.329E+02  +1.579E+02  -1.183E+03  -4.162E+02  +6.844E+03
  +1.41E+05  +5.32E+05  +1.92E+05  +3.733E+02  +6.787E+03  +2.329E+02  +1.579E+02  -1.183E+03  -4.162E+02  +6.844E+03

element # = 1114     type =4-n tetrahedron
 XX         YY         ZZ         SIGXX       SIGYY       SIGZZ       TAUXY       TAUYZ       TAUZX       SIGV
  +1.47E+05  +2.04E+05  +1.17E+05  +1.002E+03  +8.318E+03  -3.056E+02  +6.681E+00  -4.231E+03  +1.149E+03  +1.107E+04
  +1.46E+05  +1.77E+05  +8.91E+04  +1.002E+03  +8.318E+03  -3.056E+02  +6.681E+00  -4.231E+03  +1.149E+03  +1.107E+04
  +1.40E+05  +1.61E+05  +1.21E+05  +1.002E+03  +8.318E+03  -3.056E+02  +6.681E+00  -4.231E+03  +1.149E+03  +1.107E+04
  +1.73E+05  +1.84E+05  +1.04E+05  +1.002E+03  +8.318E+03  -3.056E+02  +6.681E+00  -4.231E+03  +1.149E+03  +1.107E+04

element # = 1115     type =4-n tetrahedron
 XX         YY         ZZ         SIGXX       SIGYY       SIGZZ       TAUXY       TAUYZ       TAUZX       SIGV
  +1.82E+05  +1.73E+05  +1.38E+05  -4.961E+02  +7.937E+03  -1.799E+02  +4.472E+02  -3.318E+03  +1.882E+02  +1.011E+04
  +1.56E+05  +2.03E+05  +1.29E+05  -4.961E+02  +7.937E+03  -1.799E+02  +4.472E+02  -3.318E+03  +1.882E+02  +1.011E+04
  +1.49E+05  +1.60E+05  +1.33E+05  -4.961E+02  +7.937E+03  -1.799E+02  +4.472E+02  -3.318E+03  +1.882E+02  +1.011E+04
  +1.82E+05  +1.83E+05  +1.16E+05  -4.961E+02  +7.937E+03  -1.799E+02  +4.472E+02  -3.318E+03  +1.882E+02  +1.011E+04

element # = 1116     type =4-n tetrahedron
 XX         YY         ZZ         SIGXX       SIGYY       SIGZZ       TAUXY       TAUYZ       TAUZX       SIGV
  +1.40E+05  +9.32E+05  +7.09E+03  +1.764E+01  -2.504E+02  -6.736E+01  +2.725E+01  -1.365E+02  +3.093E+01  +3.424E+02
  +1.41E+05  +9.07E+05  +7.09E+03  +1.764E+01  -2.504E+02  -6.736E+01  +2.725E+01  -1.365E+02  +3.093E+01  +3.424E+02
  +1.19E+05  +9.18E+05  +7.09E+03  +1.764E+01  -2.504E+02  -6.736E+01  +2.725E+01  -1.365E+02  +3.093E+01  +3.424E+02
  +1.35E+05  +9.34E+05  +3.00E+04  +1.764E+01  -2.504E+02  -6.736E+01  +2.725E+01  -1.365E+02  +3.093E+01  +3.424E+02

element # = 1117     type =4-n tetrahedron
 XX         YY         ZZ         SIGXX       SIGYY       SIGZZ       TAUXY       TAUYZ       TAUZX       SIGV
  +1.04E+05  +5.42E+05  +1.86E+04  -4.553E+02  -5.872E+03  -1.393E+02  +6.870E+02  -8.825E+02  -1.141E+02  +5.911E+03
  +1.22E+05  +5.70E+05  +4.20E+04  -4.553E+02  -5.872E+03  -1.393E+02  +6.870E+02  -8.825E+02  -1.141E+02  +5.911E+03
  +1.01E+05  +5.54E+05  +5.52E+04  -4.553E+02  -5.872E+03  -1.393E+02  +6.870E+02  -8.825E+02  -1.141E+02  +5.911E+03
  +1.04E+05  +5.64E+05  +1.86E+04  -4.553E+02  -5.872E+03  -1.393E+02  +6.870E+02  -8.825E+02  -1.141E+02  +5.911E+03

element # = 1118     type =4-n tetrahedron
 XX         YY         ZZ         SIGXX       SIGYY       SIGZZ       TAUXY       TAUYZ       TAUZX       SIGV
  +3.13E+04  +1.42E+05  +1.48E+05  +1.565E+02  +1.322E+04  -2.155E+02  -2.120E+02  -2.249E+03  +1.371E+03  +1.402E+04
  +7.39E+03  +1.30E+05  +1.45E+05  +1.565E+02  +1.322E+04  -2.155E+02  -2.120E+02  -2.249E+03  +1.371E+03  +1.402E+04
  +7.39E+03  +1.45E+05  +1.23E+05  +1.565E+02  +1.322E+04  -2.155E+02  -2.120E+02  -2.249E+03  +1.371E+03  +1.402E+04
  +7.39E+03  +1.53E+05  +1.48E+05  +1.565E+02  +1.322E+04  -2.155E+02  -2.120E+02  -2.249E+03  +1.371E+03  +1.402E+04

element # = 1119     type =4-n tetrahedron
 XX         YY         ZZ         SIGXX       SIGYY       SIGZZ       TAUXY       TAUYZ       TAUZX       SIGV
  +3.42E+04  +1.04E+05  +6.98E+04  -2.392E+02  -7.145E+03  -4.172E+03  -2.678E+02  -5.743E+02  +1.342E+03  +6.527E+03
  +4.78E+04  +1.25E+05  +6.38E+04  -2.392E+02  -7.145E+03  -4.172E+03  -2.678E+02  -5.743E+02  +1.342E+03  +6.527E+03
  +1.57E+04  +1.32E+05  +8.33E+04  -2.392E+02  -7.145E+03  -4.172E+03  -2.678E+02  -5.743E+02  +1.342E+03  +6.527E+03
  +1.57E+04  +1.18E+05  +6.08E+04  -2.392E+02  -7.145E+03  -4.172E+03  -2.678E+02  -5.743E+02  +1.342E+03  +6.527E+03

element # = 1120     type =4-n tetrahedron
 XX         YY         ZZ         SIGXX       SIGYY       SIGZZ       TAUXY       TAUYZ       TAUZX       SIGV
  +1.85E+05  +1.28E+05  +4.56E+04  +6.963E+02  -1.230E+04  +4.842E+02  +3.116E+02  -1.917E+03  +2.736E+02  +1.333E+04
  +1.58E+05  +1.55E+05  +5.24E+04  +6.963E+02  -1.230E+04  +4.842E+02  +3.116E+02  -1.917E+03  +2.736E+02  +1.333E+04
  +1.62E+05  +1.28E+05  +2.30E+04  +6.963E+02  -1.230E+04  +4.842E+02  +3.116E+02  -1.917E+03  +2.736E+02  +1.333E+04
  +1.85E+05  +1.51E+05  +4.54E+04  +6.963E+02  -1.230E+04  +4.842E+02  +3.116E+02  -1.917E+03  +2.736E+02  +1.333E+04

element # = 1121     type =4-n tetrahedron
 XX         YY         ZZ         SIGXX       SIGYY       SIGZZ       TAUXY       TAUYZ       TAUZX       SIGV
  +3.13E+04  +1.41E+05  +1.62E+05  -1.505E+02  +1.276E+04  -9.105E+02  -2.187E+02  -1.701E+03  +1.147E+03  +1.378E+04
  +7.39E+03  +1.30E+05  +1.59E+05  -1.505E+02  +1.276E+04  -9.105E+02  -2.187E+02  -1.701E+03  +1.147E+03  +1.378E+04
  +7.39E+03  +1.52E+05  +1.61E+05  -1.505E+02  +1.276E+04  -9.105E+02  -2.187E+02  -1.701E+03  +1.147E+03  +1.378E+04
  +7.39E+03  +1.42E+05  +1.81E+05  -1.505E+02  +1.276E+04  -9.105E+02  -2.187E+02  -1.701E+03  +1.147E+03  +1.378E+04

element # = 1122     type =4-n tetrahedron
 XX         YY         ZZ         SIGXX       SIGYY       SIGZZ       TAUXY       TAUYZ       TAUZX       SIGV
  +1.22E+04  +2.33E+05  +1.19E+05  +5.956E+02  +4.949E+03  +6.866E+02  -5.174E+02  -1.156E+03  -6.172E+02  +4.952E+03
  +3.10E+04  +2.28E+05  +1.37E+05  +5.956E+02  +4.949E+03  +6.866E+02  -5.174E+02  -1.156E+03  -6.172E+02  +4.952E+03
  +3.28E+04  +2.35E+05  +1.14E+05  +5.956E+02  +4.949E+03  +6.866E+02  -5.174E+02  -1.156E+03  -6.172E+02  +4.952E+03
  +1.22E+04  +2.12E+05  +1.23E+05  +5.956E+02  +4.949E+03  +6.866E+02  -5.174E+02  -1.156E+03  -6.172E+02  +4.952E+03

element # = 1123     type =4-n tetrahedron
 XX         YY         ZZ         SIGXX       SIGYY       SIGZZ       TAUXY       TAUYZ       TAUZX       SIGV
  +9.84E+04  +5.70E+04  +2.52E+04  -5.565E+03  -3.463E+04  -3.202E+03  -1.120E+03  -4.322E+03  +1.379E+03  +3.138E+04
  +1.26E+05  +5.79E+04  +5.95E+03  -5.565E+03  -3.463E+04  -3.202E+03  -1.120E+03  -4.322E+03  +1.379E+03  +3.138E+04
  +1.05E+05  +7.21E+04  +5.95E+03  -5.565E+03  -3.463E+04  -3.202E+03  -1.120E+03  -4.322E+03  +1.379E+03  +3.138E+04
  +1.05E+05  +5.12E+04  +5.95E+03  -5.565E+03  -3.463E+04  -3.202E+03  -1.120E+03  -4.322E+03  +1.379E+03  +3.138E+04

element # = 1124     type =4-n tetrahedron
 XX         YY         ZZ         SIGXX       SIGYY       SIGZZ       TAUXY       TAUYZ       TAUZX       SIGV
  +1.53E+05  +7.44E+05  +5.42E+04  -1.263E+02  -1.212E+03  -1.264E+02  -3.173E+01  -3.596E+02  +2.432E+01  +1.254E+03
  +1.84E+05  +7.13E+05  +4.57E+04  -1.263E+02  -1.212E+03  -1.264E+02  -3.173E+01  -3.596E+02  +2.432E+01  +1.254E+03
  +1.84E+05  +7.35E+05  +4.58E+04  -1.263E+02  -1.212E+03  -1.264E+02  -3.173E+01  -3.596E+02  +2.432E+01  +1.254E+03
  +1.61E+05  +7.35E+05  +2.34E+04  -1.263E+02  -1.212E+03  -1.264E+02  -3.173E+01  -3.596E+02  +2.432E+01  +1.254E+03

element # = 1125     type =4-n tetrahedron
 XX         YY         ZZ         SIGXX       SIGYY       SIGZZ       TAUXY       TAUYZ       TAUZX       SIGV
  +1.37E+05  +3.84E+04  +7.14E+03  -8.500E+03  -3.210E+04  -1.211E+04  -5.982E+02  -6.504E+03  -1.057E+03  +2.482E+04
  +1.16E+05  +3.17E+04  +7.14E+03  -8.500E+03  -3.210E+04  -1.211E+04  -5.982E+02  -6.504E+03  -1.057E+03  +2.482E+04
  +1.38E+05  +1.34E+04  +3.02E+04  -8.500E+03  -3.210E+04  -1.211E+04  -5.982E+02  -6.504E+03  -1.057E+03  +2.482E+04
  +1.25E+05  +1.34E+04  +7.14E+03  -8.500E+03  -3.210E+04  -1.211E+04  -5.982E+02  -6.504E+03  -1.057E+03  +2.482E+04

element # = 1126     type =4-n tetrahedron
 XX         YY         ZZ         SIGXX       SIGYY       SIGZZ       TAUXY       TAUYZ       TAUZX       SIGV
  +5.34E+03  +6.08E+05  +1.39E+05  +8.145E+02  +2.790E+03  +1.648E+02  -1.634E+02  -1.357E+03  +3.287E+02  +3.397E+03
  +5.34E+03  +6.19E+05  +1.17E+05  +8.145E+02  +2.790E+03  +1.648E+02  -1.634E+02  -1.357E+03  +3.287E+02  +3.397E+03
  +2.26E+04  +6.18E+05  +1.27E+05  +8.145E+02  +2.790E+03  +1.648E+02  -1.634E+02  -1.357E+03  +3.287E+02  +3.397E+03
  +5.34E+03  +6.29E+05  +1.39E+05  +8.145E+02  +2.790E+03  +1.648E+02  -1.634E+02  -1.357E+03  +3.287E+02  +3.397E+03

element # = 1127     type =4-n tetrahedron
 XX         YY         ZZ         SIGXX       SIGYY       SIGZZ       TAUXY       TAUYZ       TAUZX       SIGV
  +4.36E+04  +8.37E+05  +1.82E+05  -3.371E+01  +4.682E+02  -4.828E+02  -2.438E+01  -2.710E+02  -2.454E+01  +9.501E+02
  +2.12E+04  +8.37E+05  +1.59E+05  -3.371E+01  +4.682E+02  -4.828E+02  -2.438E+01  -2.710E+02  -2.454E+01  +9.501E+02
  +4.96E+04  +8.25E+05  +1.59E+05  -3.371E+01  +4.682E+02  -4.828E+02  -2.438E+01  -2.710E+02  -2.454E+01  +9.501E+02
  +3.87E+04  +8.52E+05  +1.68E+05  -3.371E+01  +4.682E+02  -4.828E+02  -2.438E+01  -2.710E+02  -2.454E+01  +9.501E+02

element # = 1128     type =4-n tetrahedron
 XX         YY         ZZ         SIGXX       SIGYY       SIGZZ       TAUXY       TAUYZ       TAUZX       SIGV
  +5.97E+03  +7.03E+05  +4.26E+04  +1.252E+02  -1.148E+03  +2.099E+02  +4.979E+01  -6.687E+02  +1.435E+02  +1.774E+03
  +2.53E+04  +7.09E+05  +4.08E+04  +1.252E+02  -1.148E+03  +2.099E+02  +4.979E+01  -6.687E+02  +1.435E+02  +1.774E+03
  +5.97E+03  +7.24E+05  +4.26E+04  +1.252E+02  -1.148E+03  +2.099E+02  +4.979E+01  -6.687E+02  +1.435E+02  +1.774E+03
  +5.97E+03  +7.13E+05  +2.02E+04  +1.252E+02  -1.148E+03  +2.099E+02  +4.979E+01  -6.687E+02  +1.435E+02  +1.774E+03

element # = 1129     type =4-n tetrahedron
 XX         YY         ZZ         SIGXX       SIGYY       SIGZZ       TAUXY       TAUYZ       TAUZX       SIGV
  +1.71E+05  +5.10E+05  +1.86E+05  -6.153E+02  +3.685E+03  -1.185E+03  +5.510E+02  -9.909E+02  +9.233E+01  +5.015E+03
  +1.93E+05  +5.31E+05  +1.64E+05  -6.153E+02  +3.685E+03  -1.185E+03  +5.510E+02  -9.909E+02  +9.233E+01  +5.015E+03
  +1.93E+05  +5.10E+05  +1.64E+05  -6.153E+02  +3.685E+03  -1.185E+03  +5.510E+02  -9.909E+02  +9.233E+01  +5.015E+03
  +1.93E+05  +5.21E+05  +1.86E+05  -6.153E+02  +3.685E+03  -1.185E+03  +5.510E+02  -9.909E+02  +9.233E+01  +5.015E+03

element # = 1130     type =4-n tetrahedron
 XX         YY         ZZ         SIGXX       SIGYY       SIGZZ       TAUXY       TAUYZ       TAUZX       SIGV
  +1.46E+05  +5.25E+05  +1.51E+05  -5.383E+02  +2.266E+03  -1.306E+03  +8.769E+01  -5.448E+02  +4.165E+02  +3.470E+03
  +1.76E+05  +5.44E+05  +1.55E+05  -5.383E+02  +2.266E+03  -1.306E+03  +8.769E+01  -5.448E+02  +4.165E+02  +3.470E+03
  +1.54E+05  +5.44E+05  +1.77E+05  -5.383E+02  +2.266E+03  -1.306E+03  +8.769E+01  -5.448E+02  +4.165E+02  +3.470E+03
  +1.51E+05  +5.50E+05  +1.51E+05  -5.383E+02  +2.266E+03  -1.306E+03  +8.769E+01  -5.448E+02  +4.165E+02  +3.470E+03

element # = 1131     type =4-n tetrahedron
 XX         YY         ZZ         SIGXX       SIGYY       SIGZZ       TAUXY       TAUYZ       TAUZX       SIGV
  +6.01E+04  +1.49E+05  +7.87E+03  +1.531E+03  -2.085E+04  +1.560E+03  +6.362E+01  -1.269E+03  +4.640E+02  +2.252E+04
  +6.98E+04  +1.34E+05  +3.33E+04  +1.531E+03  -2.085E+04  +1.560E+03  +6.362E+01  -1.269E+03  +4.640E+02  +2.252E+04
  +8.24E+04  +1.37E+05  +7.87E+03  +1.531E+03  -2.085E+04  +1.560E+03  +6.362E+01  -1.269E+03  +4.640E+02  +2.252E+04
  +6.02E+04  +1.26E+05  +7.87E+03  +1.531E+03  -2.085E+04  +1.560E+03  +6.362E+01  -1.269E+03  +4.640E+02  +2.252E+04

element # = 1132     type =4-n tetrahedron
 XX         YY         ZZ         SIGXX       SIGYY       SIGZZ       TAUXY       TAUYZ       TAUZX       SIGV
  +1.10E+05  +1.99E+05  +1.50E+05  +9.650E+02  +9.787E+03  +1.347E+03  +2.110E+02  +5.734E+02  -1.958E+03  +9.339E+03
  +1.37E+05  +2.03E+05  +1.74E+05  +9.650E+02  +9.787E+03  +1.347E+03  +2.110E+02  +5.734E+02  -1.958E+03  +9.339E+03
  +1.33E+05  +2.12E+05  +1.42E+05  +9.650E+02  +9.787E+03  +1.347E+03  +2.110E+02  +5.734E+02  -1.958E+03  +9.339E+03
  +1.26E+05  +1.68E+05  +1.46E+05  +9.650E+02  +9.787E+03  +1.347E+03  +2.110E+02  +5.734E+02  -1.958E+03  +9.339E+03

element # = 1133     type =4-n tetrahedron
 XX         YY         ZZ         SIGXX       SIGYY       SIGZZ       TAUXY       TAUYZ       TAUZX       SIGV
  +1.71E+05  +4.59E+05  +1.44E+05  +8.016E+02  +5.868E+03  +6.403E+02  -1.990E+02  -2.007E+03  -1.640E+02  +6.229E+03
  +1.93E+05  +4.72E+05  +1.21E+05  +8.016E+02  +5.868E+03  +6.403E+02  -1.990E+02  -2.007E+03  -1.640E+02  +6.229E+03
  +1.93E+05  +4.61E+05  +1.43E+05  +8.016E+02  +5.868E+03  +6.403E+02  -1.990E+02  -2.007E+03  -1.640E+02  +6.229E+03
  +1.93E+05  +4.83E+05  +1.43E+05  +8.016E+02  +5.868E+03  +6.403E+02  -1.990E+02  -2.007E+03  -1.640E+02  +6.229E+03

element # = 1134     type =4-n tetrahedron
 XX         YY         ZZ         SIGXX       SIGYY       SIGZZ       TAUXY       TAUYZ       TAUZX       SIGV
  +1.04E+04  +1.83E+04  +1.55E+05  +4.554E+03  +1.707E+04  +3.911E+03  +2.070E+03  -7.782E+02  +9.426E+02  +1.351E+04
  +2.69E+04  +3.70E+04  +1.40E+05  +4.554E+03  +1.707E+04  +3.911E+03  +2.070E+03  -7.782E+02  +9.426E+02  +1.351E+04
  +2.75E+04  +3.35E+04  +1.59E+05  +4.554E+03  +1.707E+04  +3.911E+03  +2.070E+03  -7.782E+02  +9.426E+02  +1.351E+04
  +1.04E+04  +4.38E+04  +1.50E+05  +4.554E+03  +1.707E+04  +3.911E+03  +2.070E+03  -7.782E+02  +9.426E+02  +1.351E+04

element # = 1135     type =4-n tetrahedron
 XX         YY         ZZ         SIGXX       SIGYY       SIGZZ       TAUXY       TAUYZ       TAUZX       SIGV
  +4.95E+04  +2.17E+05  +1.61E+05  +2.216E+02  +1.107E+04  -1.295E+03  +3.031E+02  -4.777E+02  +1.028E+03  +1.185E+04
  +7.07E+04  +2.05E+05  +1.57E+05  +2.216E+02  +1.107E+04  -1.295E+03  +3.031E+02  -4.777E+02  +1.028E+03  +1.185E+04
  +4.89E+04  +1.98E+05  +1.65E+05  +2.216E+02  +1.107E+04  -1.295E+03  +3.031E+02  -4.777E+02  +1.028E+03  +1.185E+04
  +5.31E+04  +2.10E+05  +1.81E+05  +2.216E+02  +1.107E+04  -1.295E+03  +3.031E+02  -4.777E+02  +1.028E+03  +1.185E+04

element # = 1136     type =4-n tetrahedron
 XX         YY         ZZ         SIGXX       SIGYY       SIGZZ       TAUXY       TAUYZ       TAUZX       SIGV
  +1.51E+05  +7.72E+03  +7.14E+03  -1.595E+04  -3.722E+04  -1.595E+04  +1.657E+03  -7.273E+03  +0.000E+00  +2.489E+04
  +1.46E+05  +3.27E+04  +7.14E+03  -1.595E+04  -3.722E+04  -1.595E+04  +1.657E+03  -7.273E+03  +0.000E+00  +2.489E+04
  +1.46E+05  +7.72E+03  +3.02E+04  -1.595E+04  -3.722E+04  -1.595E+04  +1.657E+03  -7.273E+03  +0.000E+00  +2.489E+04
  +1.33E+05  +7.72E+03  +7.14E+03  -1.595E+04  -3.722E+04  -1.595E+04  +1.657E+03  -7.273E+03  +0.000E+00  +2.489E+04

element # = 1137     type =4-n tetrahedron
 XX         YY         ZZ         SIGXX       SIGYY       SIGZZ       TAUXY       TAUYZ       TAUZX       SIGV
  +7.89E+04  +4.42E+04  +1.75E+05  +4.836E+03  +3.013E+04  +2.015E+03  +2.522E+02  -1.491E+03  +4.028E+02  +2.696E+04
  +7.90E+04  +2.07E+04  +1.94E+05  +4.836E+03  +3.013E+04  +2.015E+03  +2.522E+02  -1.491E+03  +4.028E+02  +2.696E+04
  +6.66E+04  +4.57E+04  +1.94E+05  +4.836E+03  +3.013E+04  +2.015E+03  +2.522E+02  -1.491E+03  +4.028E+02  +2.696E+04
  +8.79E+04  +3.90E+04  +1.94E+05  +4.836E+03  +3.013E+04  +2.015E+03  +2.522E+02  -1.491E+03  +4.028E+02  +2.696E+04

element # = 1138     type =4-n tetrahedron
 XX         YY         ZZ         SIGXX       SIGYY       SIGZZ       TAUXY       TAUYZ       TAUZX       SIGV
  +1.93E+05  +8.04E+05  +3.63E+04  +6.781E+01  -5.047E+02  +7.131E+01  -2.738E+01  -3.295E+02  -2.471E+01  +8.121E+02
  +1.71E+05  +8.26E+05  +1.39E+04  +6.781E+01  -5.047E+02  +7.131E+01  -2.738E+01  -3.295E+02  -2.471E+01  +8.121E+02
  +1.93E+05  +8.14E+05  +1.39E+04  +6.781E+01  -5.047E+02  +7.131E+01  -2.738E+01  -3.295E+02  -2.471E+01  +8.121E+02
  +1.93E+05  +8.26E+05  +3.63E+04  +6.781E+01  -5.047E+02  +7.131E+01  -2.738E+01  -3.295E+02  -2.471E+01  +8.121E+02

element # = 1139     type =4-n tetrahedron
 XX         YY         ZZ         SIGXX       SIGYY       SIGZZ       TAUXY       TAUYZ       TAUZX       SIGV
  +9.07E+04  +7.19E+04  +1.94E+05  +4.056E+03  +3.056E+04  +1.439E+03  -5.483E+02  -2.880E+03  -1.592E+02  +2.836E+04
  +8.17E+04  +5.63E+04  +1.75E+05  +4.056E+03  +3.056E+04  +1.439E+03  -5.483E+02  -2.880E+03  -1.592E+02  +2.836E+04
  +6.94E+04  +5.78E+04  +1.94E+05  +4.056E+03  +3.056E+04  +1.439E+03  -5.483E+02  -2.880E+03  -1.592E+02  +2.836E+04
  +9.07E+04  +5.11E+04  +1.94E+05  +4.056E+03  +3.056E+04  +1.439E+03  -5.483E+02  -2.880E+03  -1.592E+02  +2.836E+04

element # = 1140     type =4-n tetrahedron
 XX         YY         ZZ         SIGXX       SIGYY       SIGZZ       TAUXY       TAUYZ       TAUZX       SIGV
  +1.93E+05  +2.93E+05  +3.62E+04  +7.477E+02  -8.272E+03  +1.179E+03  -1.131E+03  -1.126E+03  -3.738E+02  +9.669E+03
  +1.71E+05  +2.71E+05  +1.38E+04  +7.477E+02  -8.272E+03  +1.179E+03  -1.131E+03  -1.126E+03  -3.738E+02  +9.669E+03
  +1.93E+05  +2.71E+05  +3.62E+04  +7.477E+02  -8.272E+03  +1.179E+03  -1.131E+03  -1.126E+03  -3.738E+02  +9.669E+03
  +1.93E+05  +2.82E+05  +1.38E+04  +7.477E+02  -8.272E+03  +1.179E+03  -1.131E+03  -1.126E+03  -3.738E+02  +9.669E+03

element # = 1141     type =4-n tetrahedron
 XX         YY         ZZ         SIGXX       SIGYY       SIGZZ       TAUXY       TAUYZ       TAUZX       SIGV
  +1.71E+05  +2.51E+05  +1.38E+04  +1.260E+03  -9.001E+03  +1.219E+03  +7.305E+02  -7.147E+02  -6.908E+02  +1.046E+04
  +1.93E+05  +2.30E+05  +3.63E+04  +1.260E+03  -9.001E+03  +1.219E+03  +7.305E+02  -7.147E+02  -6.908E+02  +1.046E+04
  +1.93E+05  +2.51E+05  +3.62E+04  +1.260E+03  -9.001E+03  +1.219E+03  +7.305E+02  -7.147E+02  -6.908E+02  +1.046E+04
  +1.93E+05  +2.41E+05  +1.38E+04  +1.260E+03  -9.001E+03  +1.219E+03  +7.305E+02  -7.147E+02  -6.908E+02  +1.046E+04

element # = 1142     type =4-n tetrahedron
 XX         YY         ZZ         SIGXX       SIGYY       SIGZZ       TAUXY       TAUYZ       TAUZX       SIGV
  +8.03E+04  +8.46E+05  +8.58E+04  -4.125E+01  -2.601E+02  -1.269E+02  +4.918E+01  -5.855E+02  -5.376E+01  +1.040E+03
  +7.81E+04  +8.12E+05  +7.97E+04  -4.125E+01  -2.601E+02  -1.269E+02  +4.918E+01  -5.855E+02  -5.376E+01  +1.040E+03
  +6.35E+04  +8.27E+05  +8.95E+04  -4.125E+01  -2.601E+02  -1.269E+02  +4.918E+01  -5.855E+02  -5.376E+01  +1.040E+03
  +1.02E+05  +8.28E+05  +1.09E+05  -4.125E+01  -2.601E+02  -1.269E+02  +4.918E+01  -5.855E+02  -5.376E+01  +1.040E+03

element # = 1143     type =4-n tetrahedron
 XX         YY         ZZ         SIGXX       SIGYY       SIGZZ       TAUXY       TAUYZ       TAUZX       SIGV
  +1.63E+05  +9.44E+05  +6.49E+04  +5.509E+01  +3.494E+01  -5.983E+01  -3.647E+00  -2.271E+02  +1.321E+01  +4.082E+02
  +1.91E+05  +9.28E+05  +8.67E+04  +5.509E+01  +3.494E+01  -5.983E+01  -3.647E+00  -2.271E+02  +1.321E+01  +4.082E+02
  +1.91E+05  +9.49E+05  +8.67E+04  +5.509E+01  +3.494E+01  -5.983E+01  -3.647E+00  -2.271E+02  +1.321E+01  +4.082E+02
  +1.91E+05  +9.42E+05  +6.54E+04  +5.509E+01  +3.494E+01  -5.983E+01  -3.647E+00  -2.271E+02  +1.321E+01  +4.082E+02

element # = 1144     type =4-n tetrahedron
 XX         YY         ZZ         SIGXX       SIGYY       SIGZZ       TAUXY       TAUYZ       TAUZX       SIGV
  +1.51E+05  +9.92E+05  +1.93E+05  -2.355E+01  +7.403E+01  -4.577E+02  -2.581E+00  -5.053E+01  +5.528E+00  +4.981E+02
  +1.46E+05  +9.67E+05  +1.93E+05  -2.355E+01  +7.403E+01  -4.577E+02  -2.581E+00  -5.053E+01  +5.528E+00  +4.981E+02
  +1.46E+05  +9.92E+05  +1.70E+05  -2.355E+01  +7.403E+01  -4.577E+02  -2.581E+00  -5.053E+01  +5.528E+00  +4.981E+02
  +1.33E+05  +9.92E+05  +1.93E+05  -2.355E+01  +7.403E+01  -4.577E+02  -2.581E+00  -5.053E+01  +5.528E+00  +4.981E+02

element # = 1145     type =4-n tetrahedron
 XX         YY         ZZ         SIGXX       SIGYY       SIGZZ       TAUXY       TAUYZ       TAUZX       SIGV
  +3.11E+04  +9.64E+05  +1.59E+05  -4.883E+00  +6.417E+01  -4.169E+02  +6.854E+00  -9.594E+01  -2.342E+01  +4.820E+02
  +3.16E+04  +9.59E+05  +1.39E+05  -4.883E+00  +6.417E+01  -4.169E+02  +6.854E+00  -9.594E+01  -2.342E+01  +4.820E+02
  +1.20E+04  +9.81E+05  +1.55E+05  -4.883E+00  +6.417E+01  -4.169E+02  +6.854E+00  -9.594E+01  -2.342E+01  +4.820E+02
  +1.20E+04  +9.56E+05  +1.49E+05  -4.883E+00  +6.417E+01  -4.169E+02  +6.854E+00  -9.594E+01  -2.342E+01  +4.820E+02

element # = 1146     type =4-n tetrahedron
 XX         YY         ZZ         SIGXX       SIGYY       SIGZZ       TAUXY       TAUYZ       TAUZX       SIGV
  +4.12E+04  +9.01E+05  +1.95E+05  -2.321E+00  +2.131E+02  -4.602E+02  -1.356E+01  -9.004E+01  -5.430E+00  +6.162E+02
  +4.21E+04  +9.27E+05  +1.95E+05  -2.321E+00  +2.131E+02  -4.602E+02  -1.356E+01  -9.004E+01  -5.430E+00  +6.162E+02
  +1.86E+04  +9.09E+05  +1.95E+05  -2.321E+00  +2.131E+02  -4.602E+02  -1.356E+01  -9.004E+01  -5.430E+00  +6.162E+02
  +3.28E+04  +9.15E+05  +1.78E+05  -2.321E+00  +2.131E+02  -4.602E+02  -1.356E+01  -9.004E+01  -5.430E+00  +6.162E+02

element # = 1147     type =4-n tetrahedron
 XX         YY         ZZ         SIGXX       SIGYY       SIGZZ       TAUXY       TAUYZ       TAUZX       SIGV
  +1.01E+05  +2.15E+05  +3.51E+04  -2.471E+03  -2.386E+04  -1.691E+03  -2.932E+02  -1.147E+03  +1.217E+03  +2.199E+04
  +1.28E+05  +2.13E+05  +8.29E+03  -2.471E+03  -2.386E+04  -1.691E+03  -2.932E+02  -1.147E+03  +1.217E+03  +2.199E+04
  +1.06E+05  +2.24E+05  +8.29E+03  -2.471E+03  -2.386E+04  -1.691E+03  -2.932E+02  -1.147E+03  +1.217E+03  +2.199E+04
  +1.06E+05  +2.02E+05  +8.29E+03  -2.471E+03  -2.386E+04  -1.691E+03  -2.932E+02  -1.147E+03  +1.217E+03  +2.199E+04

element # = 1148     type =4-n tetrahedron
 XX         YY         ZZ         SIGXX       SIGYY       SIGZZ       TAUXY       TAUYZ       TAUZX       SIGV
  +1.24E+04  +8.70E+05  +1.96E+05  +1.079E+01  +4.101E+02  -4.470E+02  -4.141E+01  -1.654E+02  -1.529E+00  +7.994E+02
  +3.00E+04  +8.75E+05  +1.82E+05  +1.079E+01  +4.101E+02  -4.470E+02  -4.141E+01  -1.654E+02  -1.529E+00  +7.994E+02
  +3.50E+04  +8.83E+05  +1.96E+05  +1.079E+01  +4.101E+02  -4.470E+02  -4.141E+01  -1.654E+02  -1.529E+00  +7.994E+02
  +1.24E+04  +8.91E+05  +1.96E+05  +1.079E+01  +4.101E+02  -4.470E+02  -4.141E+01  -1.654E+02  -1.529E+00  +7.994E+02

element # = 1149     type =4-n tetrahedron
 XX         YY         ZZ         SIGXX       SIGYY       SIGZZ       TAUXY       TAUYZ       TAUZX       SIGV
  +5.27E+04  +9.95E+05  +1.65E+05  -1.533E+01  +4.859E+01  -4.842E+02  -3.332E+00  -3.035E+01  +5.969E+00  +5.067E+02
  +4.87E+04  +9.78E+05  +1.75E+05  -1.533E+01  +4.859E+01  -4.842E+02  -3.332E+00  -3.035E+01  +5.969E+00  +5.067E+02
  +4.75E+04  +9.95E+05  +1.89E+05  -1.533E+01  +4.859E+01  -4.842E+02  -3.332E+00  -3.035E+01  +5.969E+00  +5.067E+02
  +6.54E+04  +9.95E+05  +1.89E+05  -1.533E+01  +4.859E+01  -4.842E+02  -3.332E+00  -3.035E+01  +5.969E+00  +5.067E+02

element # = 1150     type =4-n tetrahedron
 XX         YY         ZZ         SIGXX       SIGYY       SIGZZ       TAUXY       TAUYZ       TAUZX       SIGV
  +1.29E+05  +5.08E+05  +3.71E+04  -1.040E+03  -8.308E+03  -1.283E+03  +2.385E+02  -6.668E+02  -4.311E+01  +7.254E+03
  +1.12E+05  +4.91E+05  +8.77E+03  -1.040E+03  -8.308E+03  -1.283E+03  +2.385E+02  -6.668E+02  -4.311E+01  +7.254E+03
  +1.35E+05  +5.02E+05  +8.77E+03  -1.040E+03  -8.308E+03  -1.283E+03  +2.385E+02  -6.668E+02  -4.311E+01  +7.254E+03
  +1.12E+05  +5.12E+05  +8.77E+03  -1.040E+03  -8.308E+03  -1.283E+03  +2.385E+02  -6.668E+02  -4.311E+01  +7.254E+03

element # = 1151     type =4-n tetrahedron
 XX         YY         ZZ         SIGXX       SIGYY       SIGZZ       TAUXY       TAUYZ       TAUZX       SIGV
  +6.73E+04  +9.24E+05  +3.25E+04  -1.213E+01  -2.070E+02  -7.996E+01  +9.670E+00  -1.040E+02  -1.238E+01  +2.501E+02
  +4.51E+04  +9.22E+05  +2.72E+04  -1.213E+01  -2.070E+02  -7.996E+01  +9.670E+00  -1.040E+02  -1.238E+01  +2.501E+02
  +5.28E+04  +9.05E+05  +1.14E+04  -1.213E+01  -2.070E+02  -7.996E+01  +9.670E+00  -1.040E+02  -1.238E+01  +2.501E+02
  +5.37E+04  +9.31E+05  +1.14E+04  -1.213E+01  -2.070E+02  -7.996E+01  +9.670E+00  -1.040E+02  -1.238E+01  +2.501E+02

element # = 1152     type =4-n tetrahedron
 XX         YY         ZZ         SIGXX       SIGYY       SIGZZ       TAUXY       TAUYZ       TAUZX       SIGV
  +9.57E+04  +8.56E+05  +2.47E+04  -5.109E+01  -5.040E+02  -1.287E+02  +1.694E+01  -3.404E+02  +7.981E+00  +7.244E+02
  +8.66E+04  +8.59E+05  +6.03E+04  -5.109E+01  -5.040E+02  -1.287E+02  +1.694E+01  -3.404E+02  +7.981E+00  +7.244E+02
  +1.13E+05  +8.51E+05  +5.25E+04  -5.109E+01  -5.040E+02  -1.287E+02  +1.694E+01  -3.404E+02  +7.981E+00  +7.244E+02
  +7.41E+04  +8.40E+05  +4.15E+04  -5.109E+01  -5.040E+02  -1.287E+02  +1.694E+01  -3.404E+02  +7.981E+00  +7.244E+02

element # = 1153     type =4-n tetrahedron
 XX         YY         ZZ         SIGXX       SIGYY       SIGZZ       TAUXY       TAUYZ       TAUZX       SIGV
  +4.39E+03  +9.40E+05  +1.88E+05  -3.284E+01  +1.706E+02  -4.251E+02  -3.923E+01  -1.253E+02  +1.456E+01  +5.722E+02
  +4.39E+03  +9.36E+05  +1.64E+05  -3.284E+01  +1.706E+02  -4.251E+02  -3.923E+01  -1.253E+02  +1.456E+01  +5.722E+02
  +4.39E+03  +9.19E+05  +1.88E+05  -3.284E+01  +1.706E+02  -4.251E+02  -3.923E+01  -1.253E+02  +1.456E+01  +5.722E+02
  +1.86E+04  +9.24E+05  +1.71E+05  -3.284E+01  +1.706E+02  -4.251E+02  -3.923E+01  -1.253E+02  +1.456E+01  +5.722E+02

element # = 1154     type =4-n tetrahedron
 XX         YY         ZZ         SIGXX       SIGYY       SIGZZ       TAUXY       TAUYZ       TAUZX       SIGV
  +4.97E+04  +8.79E+05  +1.11E+05  -5.124E+01  -1.694E+02  -3.560E+02  +8.640E+00  -3.983E+02  -2.210E+01  +7.406E+02
  +4.25E+04  +8.95E+05  +8.99E+04  -5.124E+01  -1.694E+02  -3.560E+02  +8.640E+00  -3.983E+02  -2.210E+01  +7.406E+02
  +2.44E+04  +8.72E+05  +9.85E+04  -5.124E+01  -1.694E+02  -3.560E+02  +8.640E+00  -3.983E+02  -2.210E+01  +7.406E+02
  +6.00E+04  +8.75E+05  +8.93E+04  -5.124E+01  -1.694E+02  -3.560E+02  +8.640E+00  -3.983E+02  -2.210E+01  +7.406E+02

element # = 1155     type =4-n tetrahedron
 XX         YY         ZZ         SIGXX       SIGYY       SIGZZ       TAUXY       TAUYZ       TAUZX       SIGV
  +5.60E+03  +9.44E+05  +9.08E+04  +1.519E+01  +4.839E+01  -1.133E+02  +7.391E+00  -2.489E+02  -1.064E+01  +4.563E+02
  +2.37E+04  +9.23E+05  +8.22E+04  +1.519E+01  +4.839E+01  -1.133E+02  +7.391E+00  -2.489E+02  -1.064E+01  +4.563E+02
  +5.60E+03  +9.37E+05  +6.95E+04  +1.519E+01  +4.839E+01  -1.133E+02  +7.391E+00  -2.489E+02  -1.064E+01  +4.563E+02
  +5.60E+03  +9.23E+05  +9.08E+04  +1.519E+01  +4.839E+01  -1.133E+02  +7.391E+00  -2.489E+02  -1.064E+01  +4.563E+02

element # = 1156     type =4-n tetrahedron
 XX         YY         ZZ         SIGXX       SIGYY       SIGZZ       TAUXY       TAUYZ       TAUZX       SIGV
  +2.47E+04  +9.25E+05  +1.47E+05  -2.213E+01  -6.449E+00  -4.008E+02  -2.177E+01  -2.403E+02  -2.266E+00  +5.694E+02
  +1.04E+04  +9.23E+05  +1.19E+05  -2.213E+01  -6.449E+00  -4.008E+02  -2.177E+01  -2.403E+02  -2.266E+00  +5.694E+02
  +3.00E+04  +9.41E+05  +1.30E+05  -2.213E+01  -6.449E+00  -4.008E+02  -2.177E+01  -2.403E+02  -2.266E+00  +5.694E+02
  +1.04E+04  +9.37E+05  +1.40E+05  -2.213E+01  -6.449E+00  -4.008E+02  -2.177E+01  -2.403E+02  -2.266E+00  +5.694E+02

element # = 1157     type =4-n tetrahedron
 XX         YY         ZZ         SIGXX       SIGYY       SIGZZ       TAUXY       TAUYZ       TAUZX       SIGV
  +7.54E+04  +9.62E+05  +1.59E+05  -4.528E+01  -1.107E+01  -4.701E+02  -4.484E+00  -6.072E+01  +4.777E+00  +4.554E+02
  +5.20E+04  +9.61E+05  +1.41E+05  -4.528E+01  -1.107E+01  -4.701E+02  -4.484E+00  -6.072E+01  +4.777E+00  +4.554E+02
  +5.55E+04  +9.82E+05  +1.51E+05  -4.528E+01  -1.107E+01  -4.701E+02  -4.484E+00  -6.072E+01  +4.777E+00  +4.554E+02
  +5.15E+04  +9.66E+05  +1.60E+05  -4.528E+01  -1.107E+01  -4.701E+02  -4.484E+00  -6.072E+01  +4.777E+00  +4.554E+02

element # = 1158     type =4-n tetrahedron
 XX         YY         ZZ         SIGXX       SIGYY       SIGZZ       TAUXY       TAUYZ       TAUZX       SIGV
  +5.66E+04  +3.24E+05  +1.46E+05  +1.551E+02  +6.143E+03  -4.212E+02  -7.653E+02  -1.983E+03  -8.634E+01  +7.295E+03
  +5.58E+04  +3.13E+05  +1.25E+05  +1.551E+02  +6.143E+03  -4.212E+02  -7.653E+02  -1.983E+03  -8.634E+01  +7.295E+03
  +7.67E+04  +3.02E+05  +1.41E+05  +1.551E+02  +6.143E+03  -4.212E+02  -7.653E+02  -1.983E+03  -8.634E+01  +7.295E+03
  +7.88E+04  +3.34E+05  +1.33E+05  +1.551E+02  +6.143E+03  -4.212E+02  -7.653E+02  -1.983E+03  -8.634E+01  +7.295E+03

element # = 1159     type =4-n tetrahedron
 XX         YY         ZZ         SIGXX       SIGYY       SIGZZ       TAUXY       TAUYZ       TAUZX       SIGV
  +5.93E+04  +9.46E+05  +7.87E+04  +3.746E+01  -9.429E+00  -1.036E+02  -1.884E+00  -2.045E+02  -3.297E+01  +3.797E+02
  +5.73E+04  +9.25E+05  +8.04E+04  +3.746E+01  -9.429E+00  -1.036E+02  -1.884E+00  -2.045E+02  -3.297E+01  +3.797E+02
  +9.06E+04  +9.39E+05  +9.58E+04  +3.746E+01  -9.429E+00  -1.036E+02  -1.884E+00  -2.045E+02  -3.297E+01  +3.797E+02
  +7.62E+04  +9.32E+05  +6.54E+04  +3.746E+01  -9.429E+00  -1.036E+02  -1.884E+00  -2.045E+02  -3.297E+01  +3.797E+02

element # = 1160     type =4-n tetrahedron
 XX         YY         ZZ         SIGXX       SIGYY       SIGZZ       TAUXY       TAUYZ       TAUZX       SIGV
  +1.98E+04  +4.07E+05  +1.50E+05  +4.524E+02  +6.412E+03  +8.798E+01  +6.371E+01  -2.002E+03  -5.207E+02  +7.119E+03
  +3.95E+04  +4.20E+05  +1.53E+05  +4.524E+02  +6.412E+03  +8.798E+01  +6.371E+01  -2.002E+03  -5.207E+02  +7.119E+03
  +4.01E+04  +4.07E+05  +1.25E+05  +4.524E+02  +6.412E+03  +8.798E+01  +6.371E+01  -2.002E+03  -5.207E+02  +7.119E+03
  +4.38E+04  +3.99E+05  +1.50E+05  +4.524E+02  +6.412E+03  +8.798E+01  +6.371E+01  -2.002E+03  -5.207E+02  +7.119E+03

element # = 1161     type =4-n tetrahedron
 XX         YY         ZZ         SIGXX       SIGYY       SIGZZ       TAUXY       TAUYZ       TAUZX       SIGV
  +5.91E+03  +2.75E+05  +1.89E+05  +1.829E+03  +1.691E+04  -4.780E+02  -4.766E+02  -1.238E+03  +2.847E+02  +1.652E+04
  +2.50E+04  +2.70E+05  +1.73E+05  +1.829E+03  +1.691E+04  -4.780E+02  -4.766E+02  -1.238E+03  +2.847E+02  +1.652E+04
  +5.91E+03  +2.65E+05  +1.70E+05  +1.829E+03  +1.691E+04  -4.780E+02  -4.766E+02  -1.238E+03  +2.847E+02  +1.652E+04
  +5.91E+03  +2.53E+05  +1.89E+05  +1.829E+03  +1.691E+04  -4.780E+02  -4.766E+02  -1.238E+03  +2.847E+02  +1.652E+04

element # = 1162     type =4-n tetrahedron
 XX         YY         ZZ         SIGXX       SIGYY       SIGZZ       TAUXY       TAUYZ       TAUZX       SIGV
  +5.91E+03  +2.96E+05  +1.66E+05  -2.508E+02  +1.001E+04  -8.255E+02  -1.317E+02  -1.654E+03  +7.368E+02  +1.102E+04
  +5.91E+03  +2.85E+05  +1.84E+05  -2.508E+02  +1.001E+04  -8.255E+02  -1.317E+02  -1.654E+03  +7.368E+02  +1.102E+04
  +2.50E+04  +2.80E+05  +1.67E+05  -2.508E+02  +1.001E+04  -8.255E+02  -1.317E+02  -1.654E+03  +7.368E+02  +1.102E+04
  +5.91E+03  +2.75E+05  +1.65E+05  -2.508E+02  +1.001E+04  -8.255E+02  -1.317E+02  -1.654E+03  +7.368E+02  +1.102E+04

element # = 1163     type =4-n tetrahedron
 XX         YY         ZZ         SIGXX       SIGYY       SIGZZ       TAUXY       TAUYZ       TAUZX       SIGV
  +1.55E+05  +1.35E+05  +1.60E+04  -2.100E+03  -2.200E+04  +2.643E+02  -2.164E+01  -3.435E+02  +1.042E+03  +2.127E+04
  +1.51E+05  +1.62E+05  +4.54E+04  -2.100E+03  -2.200E+04  +2.643E+02  -2.164E+01  -3.435E+02  +1.042E+03  +2.127E+04
  +1.55E+05  +1.58E+05  +1.60E+04  -2.100E+03  -2.200E+04  +2.643E+02  -2.164E+01  -3.435E+02  +1.042E+03  +2.127E+04
  +1.78E+05  +1.58E+05  +3.85E+04  -2.100E+03  -2.200E+04  +2.643E+02  -2.164E+01  -3.435E+02  +1.042E+03  +2.127E+04

element # = 1164     type =4-n tetrahedron
 XX         YY         ZZ         SIGXX       SIGYY       SIGZZ       TAUXY       TAUYZ       TAUZX       SIGV
  +1.93E+05  +5.31E+05  +3.62E+04  +7.385E+02  -3.363E+03  +7.186E+02  -6.625E+02  -1.164E+03  +7.216E+01  +4.705E+03
  +1.71E+05  +5.10E+05  +1.38E+04  +7.385E+02  -3.363E+03  +7.186E+02  -6.625E+02  -1.164E+03  +7.216E+01  +4.705E+03
  +1.93E+05  +5.10E+05  +3.62E+04  +7.385E+02  -3.363E+03  +7.186E+02  -6.625E+02  -1.164E+03  +7.216E+01  +4.705E+03
  +1.93E+05  +5.21E+05  +1.38E+04  +7.385E+02  -3.363E+03  +7.186E+02  -6.625E+02  -1.164E+03  +7.216E+01  +4.705E+03

element # = 1165     type =4-n tetrahedron
 XX         YY         ZZ         SIGXX       SIGYY       SIGZZ       TAUXY       TAUYZ       TAUZX       SIGV
  +3.06E+04  +9.37E+05  +4.34E+04  -5.051E+01  -1.492E+02  -1.767E+02  -2.742E-01  -1.458E+02  -1.870E+00  +2.774E+02
  +3.59E+04  +9.53E+05  +6.21E+04  -5.051E+01  -1.492E+02  -1.767E+02  -2.742E-01  -1.458E+02  -1.870E+00  +2.774E+02
  +1.57E+04  +9.46E+05  +5.10E+04  -5.051E+01  -1.492E+02  -1.767E+02  -2.742E-01  -1.458E+02  -1.870E+00  +2.774E+02
  +3.16E+04  +9.56E+05  +4.31E+04  -5.051E+01  -1.492E+02  -1.767E+02  -2.742E-01  -1.458E+02  -1.870E+00  +2.774E+02

element # = 1166     type =4-n tetrahedron
 XX         YY         ZZ         SIGXX       SIGYY       SIGZZ       TAUXY       TAUYZ       TAUZX       SIGV
  +1.04E+05  +3.11E+05  +9.73E+04  -5.518E+02  +1.262E+02  +3.851E+02  -1.228E+03  -2.213E+03  +1.330E+01  +4.463E+03
  +1.05E+05  +3.38E+05  +1.15E+05  -5.518E+02  +1.262E+02  +3.851E+02  -1.228E+03  -2.213E+03  +1.330E+01  +4.463E+03
  +1.18E+05  +3.30E+05  +8.35E+04  -5.518E+02  +1.262E+02  +3.851E+02  -1.228E+03  -2.213E+03  +1.330E+01  +4.463E+03
  +1.27E+05  +3.20E+05  +1.20E+05  -5.518E+02  +1.262E+02  +3.851E+02  -1.228E+03  -2.213E+03  +1.330E+01  +4.463E+03

element # = 1167     type =4-n tetrahedron
 XX         YY         ZZ         SIGXX       SIGYY       SIGZZ       TAUXY       TAUYZ       TAUZX       SIGV
  +9.09E+04  +3.16E+05  +8.97E+04  +8.065E+02  -1.559E+03  -5.474E+02  +3.426E+02  -1.016E+03  -1.868E+02  +2.789E+03
  +9.16E+04  +3.43E+05  +1.08E+05  +8.065E+02  -1.559E+03  -5.474E+02  +3.426E+02  -1.016E+03  -1.868E+02  +2.789E+03
  +7.24E+04  +3.41E+05  +8.78E+04  +8.065E+02  -1.559E+03  -5.474E+02  +3.426E+02  -1.016E+03  -1.868E+02  +2.789E+03
  +1.05E+05  +3.35E+05  +7.60E+04  +8.065E+02  -1.559E+03  -5.474E+02  +3.426E+02  -1.016E+03  -1.868E+02  +2.789E+03

element # = 1168     type =4-n tetrahedron
 XX         YY         ZZ         SIGXX       SIGYY       SIGZZ       TAUXY       TAUYZ       TAUZX       SIGV
  +9.77E+04  +7.17E+05  +8.37E+04  -2.743E+02  -7.886E+02  -7.909E+02  -6.053E+00  -6.517E+02  -9.044E+01  +1.251E+03
  +1.15E+05  +7.45E+05  +8.16E+04  -2.743E+02  -7.886E+02  -7.909E+02  -6.053E+00  -6.517E+02  -9.044E+01  +1.251E+03
  +1.13E+05  +7.43E+05  +1.14E+05  -2.743E+02  -7.886E+02  -7.909E+02  -6.053E+00  -6.517E+02  -9.044E+01  +1.251E+03
  +8.15E+04  +7.34E+05  +8.80E+04  -2.743E+02  -7.886E+02  -7.909E+02  -6.053E+00  -6.517E+02  -9.044E+01  +1.251E+03

element # = 1169     type =4-n tetrahedron
 XX         YY         ZZ         SIGXX       SIGYY       SIGZZ       TAUXY       TAUYZ       TAUZX       SIGV
  +3.53E+04  +7.31E+05  +1.88E+05  -8.285E+01  +1.784E+03  -4.519E+02  -4.276E+01  -4.890E+02  +8.212E+01  +2.248E+03
  +1.29E+04  +7.31E+05  +1.65E+05  -8.285E+01  +1.784E+03  -4.519E+02  -4.276E+01  -4.890E+02  +8.212E+01  +2.248E+03
  +1.29E+04  +7.20E+05  +1.88E+05  -8.285E+01  +1.784E+03  -4.519E+02  -4.276E+01  -4.890E+02  +8.212E+01  +2.248E+03
  +3.24E+04  +7.17E+05  +1.71E+05  -8.285E+01  +1.784E+03  -4.519E+02  -4.276E+01  -4.890E+02  +8.212E+01  +2.248E+03

element # = 1170     type =4-n tetrahedron
 XX         YY         ZZ         SIGXX       SIGYY       SIGZZ       TAUXY       TAUYZ       TAUZX       SIGV
  +1.56E+05  +3.16E+05  +1.85E+05  +1.340E+03  +1.492E+04  -1.492E+03  +3.647E+02  -1.740E+03  +5.710E+02  +1.554E+04
  +1.79E+05  +3.16E+05  +1.62E+05  +1.340E+03  +1.492E+04  -1.492E+03  +3.647E+02  -1.740E+03  +5.710E+02  +1.554E+04
  +1.56E+05  +3.38E+05  +1.85E+05  +1.340E+03  +1.492E+04  -1.492E+03  +3.647E+02  -1.740E+03  +5.710E+02  +1.554E+04
  +1.54E+05  +3.18E+05  +1.57E+05  +1.340E+03  +1.492E+04  -1.492E+03  +3.647E+02  -1.740E+03  +5.710E+02  +1.554E+04

element # = 1171     type =4-n tetrahedron
 XX         YY         ZZ         SIGXX       SIGYY       SIGZZ       TAUXY       TAUYZ       TAUZX       SIGV
  +1.54E+05  +3.05E+05  +1.57E+05  +2.355E+03  +1.709E+04  -3.358E+02  +5.007E+02  -5.828E+02  +6.552E+02  +1.634E+04
  +1.56E+05  +2.82E+05  +1.85E+05  +2.355E+03  +1.709E+04  -3.358E+02  +5.007E+02  -5.828E+02  +6.552E+02  +1.634E+04
  +1.56E+05  +3.03E+05  +1.85E+05  +2.355E+03  +1.709E+04  -3.358E+02  +5.007E+02  -5.828E+02  +6.552E+02  +1.634E+04
  +1.78E+05  +3.03E+05  +1.62E+05  +2.355E+03  +1.709E+04  -3.358E+02  +5.007E+02  -5.828E+02  +6.552E+02  +1.634E+04

element # = 1172     type =4-n tetrahedron
 XX         YY         ZZ         SIGXX       SIGYY       SIGZZ       TAUXY       TAUYZ       TAUZX       SIGV
  +8.44E+04  +5.92E+05  +1.23E+05  +4.947E+01  +1.803E+03  -1.931E+02  -6.030E+01  -1.395E+03  +9.670E+01  +3.071E+03
  +7.60E+04  +5.61E+05  +1.35E+05  +4.947E+01  +1.803E+03  -1.931E+02  -6.030E+01  -1.395E+03  +9.670E+01  +3.071E+03
  +5.75E+04  +5.73E+05  +1.09E+05  +4.947E+01  +1.803E+03  -1.931E+02  -6.030E+01  -1.395E+03  +9.670E+01  +3.071E+03
  +5.72E+04  +5.73E+05  +1.34E+05  +4.947E+01  +1.803E+03  -1.931E+02  -6.030E+01  -1.395E+03  +9.670E+01  +3.071E+03

element # = 1173     type =4-n tetrahedron
 XX         YY         ZZ         SIGXX       SIGYY       SIGZZ       TAUXY       TAUYZ       TAUZX       SIGV
  +9.09E+04  +9.90E+05  +7.81E+04  -1.099E+01  -6.557E+01  -1.280E+02  -9.102E+00  -9.851E+01  -6.396E+00  +1.994E+02
  +6.93E+04  +9.90E+05  +5.65E+04  -1.099E+01  -6.557E+01  -1.280E+02  -9.102E+00  -9.851E+01  -6.396E+00  +1.994E+02
  +8.33E+04  +9.58E+05  +5.45E+04  -1.099E+01  -6.557E+01  -1.280E+02  -9.102E+00  -9.851E+01  -6.396E+00  +1.994E+02
  +9.09E+04  +9.90E+05  +5.25E+04  -1.099E+01  -6.557E+01  -1.280E+02  -9.102E+00  -9.851E+01  -6.396E+00  +1.994E+02

element # = 1174     type =4-n tetrahedron
 XX         YY         ZZ         SIGXX       SIGYY       SIGZZ       TAUXY       TAUYZ       TAUZX       SIGV
  +5.96E+04  +8.14E+04  +6.88E+04  -1.726E+03  -1.210E+04  -1.022E+03  -9.696E+02  -7.687E+03  -1.363E+03  +1.735E+04
  +7.96E+04  +6.78E+04  +5.66E+04  -1.726E+03  -1.210E+04  -1.022E+03  -9.696E+02  -7.687E+03  -1.363E+03  +1.735E+04
  +8.49E+04  +6.46E+04  +8.21E+04  -1.726E+03  -1.210E+04  -1.022E+03  -9.696E+02  -7.687E+03  -1.363E+03  +1.735E+04
  +7.32E+04  +1.02E+05  +6.28E+04  -1.726E+03  -1.210E+04  -1.022E+03  -9.696E+02  -7.687E+03  -1.363E+03  +1.735E+04

element # = 1175     type =4-n tetrahedron
 XX         YY         ZZ         SIGXX       SIGYY       SIGZZ       TAUXY       TAUYZ       TAUZX       SIGV
  +1.85E+05  +3.23E+05  +1.55E+05  -1.089E+03  +6.361E+03  -1.713E+03  +3.508E+01  -1.187E+03  -4.908E+01  +8.048E+03
  +1.85E+05  +3.44E+05  +1.55E+05  -1.089E+03  +6.361E+03  -1.713E+03  +3.508E+01  -1.187E+03  -4.908E+01  +8.048E+03
  +1.63E+05  +3.44E+05  +1.78E+05  -1.089E+03  +6.361E+03  -1.713E+03  +3.508E+01  -1.187E+03  -4.908E+01  +8.048E+03
  +1.61E+05  +3.25E+05  +1.50E+05  -1.089E+03  +6.361E+03  -1.713E+03  +3.508E+01  -1.187E+03  -4.908E+01  +8.048E+03

element # = 1176     type =4-n tetrahedron
 XX         YY         ZZ         SIGXX       SIGYY       SIGZZ       TAUXY       TAUYZ       TAUZX       SIGV
  +1.41E+05  +1.32E+05  +9.08E+03  -2.931E+03  -2.262E+04  -1.005E+03  -8.910E+02  -4.657E+02  -1.067E+03  +2.087E+04
  +1.37E+05  +1.58E+05  +3.85E+04  -2.931E+03  -2.262E+04  -1.005E+03  -8.910E+02  -4.657E+02  -1.067E+03  +2.087E+04
  +1.19E+05  +1.43E+05  +9.08E+03  -2.931E+03  -2.262E+04  -1.005E+03  -8.910E+02  -4.657E+02  -1.067E+03  +2.087E+04
  +1.41E+05  +1.54E+05  +9.08E+03  -2.931E+03  -2.262E+04  -1.005E+03  -8.910E+02  -4.657E+02  -1.067E+03  +2.087E+04

element # = 1177     type =4-n tetrahedron
 XX         YY         ZZ         SIGXX       SIGYY       SIGZZ       TAUXY       TAUYZ       TAUZX       SIGV
  +1.29E+05  +1.57E+05  +1.64E+05  +1.450E+03  +2.031E+04  +6.684E+02  +3.765E+02  -3.591E+03  -9.216E+02  +2.032E+04
  +1.40E+05  +1.92E+05  +1.91E+05  +1.450E+03  +2.031E+04  +6.684E+02  +3.765E+02  -3.591E+03  -9.216E+02  +2.032E+04
  +1.40E+05  +1.70E+05  +1.91E+05  +1.450E+03  +2.031E+04  +6.684E+02  +3.765E+02  -3.591E+03  -9.216E+02  +2.032E+04
  +1.17E+05  +1.81E+05  +1.91E+05  +1.450E+03  +2.031E+04  +6.684E+02  +3.765E+02  -3.591E+03  -9.216E+02  +2.032E+04

element # = 1178     type =4-n tetrahedron
 XX         YY         ZZ         SIGXX       SIGYY       SIGZZ       TAUXY       TAUYZ       TAUZX       SIGV
  +1.20E+05  +3.30E+05  +1.92E+05  +3.806E+02  +1.461E+04  -1.562E+03  -8.336E+01  -1.699E+03  -7.351E+02  +1.563E+04
  +1.42E+05  +3.20E+05  +1.92E+05  +3.806E+02  +1.461E+04  -1.562E+03  -8.336E+01  -1.699E+03  -7.351E+02  +1.563E+04
  +1.42E+05  +3.41E+05  +1.92E+05  +3.806E+02  +1.461E+04  -1.562E+03  -8.336E+01  -1.699E+03  -7.351E+02  +1.563E+04
  +1.40E+05  +3.22E+05  +1.64E+05  +3.806E+02  +1.461E+04  -1.562E+03  -8.336E+01  -1.699E+03  -7.351E+02  +1.563E+04

element # = 1179     type =4-n tetrahedron
 XX         YY         ZZ         SIGXX       SIGYY       SIGZZ       TAUXY       TAUYZ       TAUZX       SIGV
  +1.93E+05  +7.22E+05  +1.64E+05  -4.716E+02  +1.171E+03  -8.339E+02  +2.965E+02  -5.564E+02  +8.452E+01  +2.154E+03
  +1.71E+05  +7.01E+05  +1.86E+05  -4.716E+02  +1.171E+03  -8.339E+02  +2.965E+02  -5.564E+02  +8.452E+01  +2.154E+03
  +1.93E+05  +7.11E+05  +1.86E+05  -4.716E+02  +1.171E+03  -8.339E+02  +2.965E+02  -5.564E+02  +8.452E+01  +2.154E+03
  +1.93E+05  +7.01E+05  +1.64E+05  -4.716E+02  +1.171E+03  -8.339E+02  +2.965E+02  -5.564E+02  +8.452E+01  +2.154E+03

element # = 1180     type =4-n tetrahedron
 XX         YY         ZZ         SIGXX       SIGYY       SIGZZ       TAUXY       TAUYZ       TAUZX       SIGV
  +1.40E+05  +3.02E+05  +1.64E+05  +1.327E+03  +1.671E+04  -5.590E+02  -2.365E+02  -5.162E+02  -1.626E+02  +1.644E+04
  +1.42E+05  +2.78E+05  +1.92E+05  +1.327E+03  +1.671E+04  -5.590E+02  -2.365E+02  -5.162E+02  -1.626E+02  +1.644E+04
  +1.20E+05  +2.89E+05  +1.92E+05  +1.327E+03  +1.671E+04  -5.590E+02  -2.365E+02  -5.162E+02  -1.626E+02  +1.644E+04
  +1.42E+05  +3.00E+05  +1.92E+05  +1.327E+03  +1.671E+04  -5.590E+02  -2.365E+02  -5.162E+02  -1.626E+02  +1.644E+04

element # = 1181     type =4-n tetrahedron
 XX         YY         ZZ         SIGXX       SIGYY       SIGZZ       TAUXY       TAUYZ       TAUZX       SIGV
  +1.92E+05  +2.46E+05  +1.11E+05  -7.528E+02  -3.305E+02  -1.620E+03  +3.501E+02  -2.817E+03  -6.033E+02  +5.153E+03
  +1.92E+05  +2.57E+05  +1.33E+05  -7.528E+02  -3.305E+02  -1.620E+03  +3.501E+02  -2.817E+03  -6.033E+02  +5.153E+03
  +1.66E+05  +2.44E+05  +1.24E+05  -7.528E+02  -3.305E+02  -1.620E+03  +3.501E+02  -2.817E+03  -6.033E+02  +5.153E+03
  +1.92E+05  +2.68E+05  +1.11E+05  -7.528E+02  -3.305E+02  -1.620E+03  +3.501E+02  -2.817E+03  -6.033E+02  +5.153E+03

element # = 1182     type =4-n tetrahedron
 XX         YY         ZZ         SIGXX       SIGYY       SIGZZ       TAUXY       TAUYZ       TAUZX       SIGV
  +3.21E+04  +6.26E+05  +1.09E+05  +1.231E+02  -3.197E+01  -3.868E+02  -4.020E+01  -1.608E+03  +6.522E+00  +2.823E+03
  +1.49E+04  +6.48E+05  +9.89E+04  +1.231E+02  -3.197E+01  -3.868E+02  -4.020E+01  -1.608E+03  +6.522E+00  +2.823E+03
  +1.49E+04  +6.27E+05  +9.89E+04  +1.231E+02  -3.197E+01  -3.868E+02  -4.020E+01  -1.608E+03  +6.522E+00  +2.823E+03
  +4.57E+04  +6.32E+05  +8.51E+04  +1.231E+02  -3.197E+01  -3.868E+02  -4.020E+01  -1.608E+03  +6.522E+00  +2.823E+03

element # = 1183     type =4-n tetrahedron
 XX         YY         ZZ         SIGXX       SIGYY       SIGZZ       TAUXY       TAUYZ       TAUZX       SIGV
  +1.19E+05  +8.26E+04  +1.94E+05  +3.425E+03  +3.032E+04  +1.043E+03  -2.544E+02  -4.312E+03  -1.438E+03  +2.925E+04
  +1.37E+05  +6.92E+04  +1.76E+05  +3.425E+03  +3.032E+04  +1.043E+03  -2.544E+02  -4.312E+03  -1.438E+03  +2.925E+04
  +1.40E+05  +6.84E+04  +1.94E+05  +3.425E+03  +3.032E+04  +1.043E+03  -2.544E+02  -4.312E+03  -1.438E+03  +2.925E+04
  +1.41E+05  +9.41E+04  +1.94E+05  +3.425E+03  +3.032E+04  +1.043E+03  -2.544E+02  -4.312E+03  -1.438E+03  +2.925E+04

element # = 1184     type =4-n tetrahedron
 XX         YY         ZZ         SIGXX       SIGYY       SIGZZ       TAUXY       TAUYZ       TAUZX       SIGV
  +1.28E+05  +1.15E+05  +1.58E+05  -1.102E+03  +1.514E+04  +8.767E+01  +2.218E+03  +6.689E+02  -3.534E+02  +1.620E+04
  +1.38E+05  +1.05E+05  +1.86E+05  -1.102E+03  +1.514E+04  +8.767E+01  +2.218E+03  +6.689E+02  -3.534E+02  +1.620E+04
  +1.34E+05  +8.01E+04  +1.68E+05  -1.102E+03  +1.514E+04  +8.767E+01  +2.218E+03  +6.689E+02  -3.534E+02  +1.620E+04
  +1.16E+05  +9.35E+04  +1.86E+05  -1.102E+03  +1.514E+04  +8.767E+01  +2.218E+03  +6.689E+02  -3.534E+02  +1.620E+04

element # = 1185     type =4-n tetrahedron
 XX         YY         ZZ         SIGXX       SIGYY       SIGZZ       TAUXY       TAUYZ       TAUZX       SIGV
  +1.90E+05  +1.60E+05  +1.34E+05  -1.176E+03  +1.748E+02  -5.616E+02  +3.634E+02  -2.978E+03  -1.315E+03  +5.792E+03
  +1.90E+05  +1.70E+05  +1.12E+05  -1.176E+03  +1.748E+02  -5.616E+02  +3.634E+02  -2.978E+03  -1.315E+03  +5.792E+03
  +1.57E+05  +1.47E+05  +1.29E+05  -1.176E+03  +1.748E+02  -5.616E+02  +3.634E+02  -2.978E+03  -1.315E+03  +5.792E+03
  +1.90E+05  +1.48E+05  +1.12E+05  -1.176E+03  +1.748E+02  -5.616E+02  +3.634E+02  -2.978E+03  -1.315E+03  +5.792E+03

element # = 1186     type =4-n tetrahedron
 XX         YY         ZZ         SIGXX       SIGYY       SIGZZ       TAUXY       TAUYZ       TAUZX       SIGV
  +1.94E+04  +9.19E+05  +3.49E+04  +4.661E+01  -1.077E+02  +1.352E+01  +9.652E+00  -1.739E+02  +5.594E+00  +3.329E+02
  +4.58E+03  +9.28E+05  +4.26E+04  +4.661E+01  -1.077E+02  +1.352E+01  +9.652E+00  -1.739E+02  +5.594E+00  +3.329E+02
  +4.58E+03  +9.02E+05  +4.17E+04  +4.661E+01  -1.077E+02  +1.352E+01  +9.652E+00  -1.739E+02  +5.594E+00  +3.329E+02
  +4.58E+03  +9.10E+05  +1.91E+04  +4.661E+01  -1.077E+02  +1.352E+01  +9.652E+00  -1.739E+02  +5.594E+00  +3.329E+02

element # = 1187     type =4-n tetrahedron
 XX         YY         ZZ         SIGXX       SIGYY       SIGZZ       TAUXY       TAUYZ       TAUZX       SIGV
  +1.56E+05  +2.56E+05  +7.90E+04  +8.849E+02  +4.074E+02  -7.985E+02  +2.756E+02  -2.969E+03  +3.354E+02  +5.410E+03
  +1.84E+05  +2.46E+05  +9.81E+04  +8.849E+02  +4.074E+02  -7.985E+02  +2.756E+02  -2.969E+03  +3.354E+02  +5.410E+03
  +1.57E+05  +2.44E+05  +1.11E+05  +8.849E+02  +4.074E+02  -7.985E+02  +2.756E+02  -2.969E+03  +3.354E+02  +5.410E+03
  +1.84E+05  +2.68E+05  +9.81E+04  +8.849E+02  +4.074E+02  -7.985E+02  +2.756E+02  -2.969E+03  +3.354E+02  +5.410E+03

element # = 1188     type =4-n tetrahedron
 XX         YY         ZZ         SIGXX       SIGYY       SIGZZ       TAUXY       TAUYZ       TAUZX       SIGV
  +7.96E+04  +3.12E+05  +9.70E+04  +1.069E+01  +6.679E+01  +7.206E+02  +7.908E+02  -2.146E+03  +6.728E+01  +4.021E+03
  +8.02E+04  +3.39E+05  +1.15E+05  +1.069E+01  +6.679E+01  +7.206E+02  +7.908E+02  -2.146E+03  +6.728E+01  +4.021E+03
  +5.72E+04  +3.17E+05  +1.07E+05  +1.069E+01  +6.679E+01  +7.206E+02  +7.908E+02  -2.146E+03  +6.728E+01  +4.021E+03
  +6.10E+04  +3.37E+05  +9.51E+04  +1.069E+01  +6.679E+01  +7.206E+02  +7.908E+02  -2.146E+03  +6.728E+01  +4.021E+03

element # = 1189     type =4-n tetrahedron
 XX         YY         ZZ         SIGXX       SIGYY       SIGZZ       TAUXY       TAUYZ       TAUZX       SIGV
  +4.77E+04  +8.55E+05  +1.29E+05  -9.930E-01  +3.272E+02  -2.881E+02  -4.788E+01  -5.990E+02  +1.652E+00  +1.170E+03
  +4.12E+04  +8.32E+05  +1.11E+05  -9.930E-01  +3.272E+02  -2.881E+02  -4.788E+01  -5.990E+02  +1.652E+00  +1.170E+03
  +2.24E+04  +8.37E+05  +1.38E+05  -9.930E-01  +3.272E+02  -2.881E+02  -4.788E+01  -5.990E+02  +1.652E+00  +1.170E+03
  +5.09E+04  +8.24E+05  +1.38E+05  -9.930E-01  +3.272E+02  -2.881E+02  -4.788E+01  -5.990E+02  +1.652E+00  +1.170E+03

element # = 1190     type =4-n tetrahedron
 XX         YY         ZZ         SIGXX       SIGYY       SIGZZ       TAUXY       TAUYZ       TAUZX       SIGV
  +1.87E+05  +9.94E+05  +8.16E+04  +1.280E+01  +2.436E+01  -1.559E+02  +2.231E+00  -7.817E+01  +3.580E+01  +2.296E+02
  +1.64E+05  +9.94E+05  +6.89E+04  +1.280E+01  +2.436E+01  -1.559E+02  +2.231E+00  -7.817E+01  +3.580E+01  +2.296E+02
  +1.68E+05  +9.94E+05  +9.06E+04  +1.280E+01  +2.436E+01  -1.559E+02  +2.231E+00  -7.817E+01  +3.580E+01  +2.296E+02
  +1.87E+05  +9.76E+05  +9.06E+04  +1.280E+01  +2.436E+01  -1.559E+02  +2.231E+00  -7.817E+01  +3.580E+01  +2.296E+02

element # = 1191     type =4-n tetrahedron
 XX         YY         ZZ         SIGXX       SIGYY       SIGZZ       TAUXY       TAUYZ       TAUZX       SIGV
  +1.10E+05  +2.98E+05  +8.73E+04  -1.777E+03  -6.602E+03  +3.384E+01  +4.480E+02  -1.902E+03  -1.517E+03  +7.324E+03
  +1.31E+05  +2.83E+05  +7.31E+04  -1.777E+03  -6.602E+03  +3.384E+01  +4.480E+02  -1.902E+03  -1.517E+03  +7.324E+03
  +1.34E+05  +3.07E+05  +1.10E+05  -1.777E+03  -6.602E+03  +3.384E+01  +4.480E+02  -1.902E+03  -1.517E+03  +7.324E+03
  +1.25E+05  +3.17E+05  +7.35E+04  -1.777E+03  -6.602E+03  +3.384E+01  +4.480E+02  -1.902E+03  -1.517E+03  +7.324E+03

element # = 1192     type =4-n tetrahedron
 XX         YY         ZZ         SIGXX       SIGYY       SIGZZ       TAUXY       TAUYZ       TAUZX       SIGV
  +1.35E+05  +2.56E+05  +1.15E+05  +2.312E+03  +6.148E+03  +1.164E+03  +1.505E+03  -2.591E+03  -8.434E+02  +7.035E+03
  +1.34E+05  +2.68E+05  +8.29E+04  +2.312E+03  +6.148E+03  +1.164E+03  +1.505E+03  -2.591E+03  -8.434E+02  +7.035E+03
  +1.36E+05  +2.92E+05  +1.19E+05  +2.312E+03  +6.148E+03  +1.164E+03  +1.505E+03  -2.591E+03  -8.434E+02  +7.035E+03
  +1.13E+05  +2.83E+05  +9.70E+04  +2.312E+03  +6.148E+03  +1.164E+03  +1.505E+03  -2.591E+03  -8.434E+02  +7.035E+03

element # = 1193     type =4-n tetrahedron
 XX         YY         ZZ         SIGXX       SIGYY       SIGZZ       TAUXY       TAUYZ       TAUZX       SIGV
  +1.91E+05  +8.27E+05  +8.79E+04  +1.696E+02  +9.446E+01  +3.686E+01  +2.308E+01  -5.902E+02  -3.463E+01  +1.031E+03
  +1.91E+05  +8.38E+05  +6.56E+04  +1.696E+02  +9.446E+01  +3.686E+01  +2.308E+01  -5.902E+02  -3.463E+01  +1.031E+03
  +1.91E+05  +8.50E+05  +8.79E+04  +1.696E+02  +9.446E+01  +3.686E+01  +2.308E+01  -5.902E+02  -3.463E+01  +1.031E+03
  +1.64E+05  +8.44E+05  +7.09E+04  +1.696E+02  +9.446E+01  +3.686E+01  +2.308E+01  -5.902E+02  -3.463E+01  +1.031E+03

element # = 1194     type =4-n tetrahedron
 XX         YY         ZZ         SIGXX       SIGYY       SIGZZ       TAUXY       TAUYZ       TAUZX       SIGV
  +8.55E+04  +3.29E+05  +1.24E+05  +6.268E+02  +4.616E+03  -6.393E+02  +3.781E+02  -4.068E+03  -7.172E+02  +8.614E+03
  +8.49E+04  +3.02E+05  +1.06E+05  +6.268E+02  +4.616E+03  -6.393E+02  +3.781E+02  -4.068E+03  -7.172E+02  +8.614E+03
  +6.25E+04  +3.08E+05  +1.16E+05  +6.268E+02  +4.616E+03  -6.393E+02  +3.781E+02  -4.068E+03  -7.172E+02  +8.614E+03
  +8.34E+04  +2.97E+05  +1.32E+05  +6.268E+02  +4.616E+03  -6.393E+02  +3.781E+02  -4.068E+03  -7.172E+02  +8.614E+03

element # = 1195     type =4-n tetrahedron
 XX         YY         ZZ         SIGXX       SIGYY       SIGZZ       TAUXY       TAUYZ       TAUZX       SIGV
  +1.83E+05  +6.41E+05  +9.90E+04  +8.972E+00  +1.249E+02  -2.771E+02  -9.882E+01  -8.699E+02  +6.744E+01  +1.563E+03
  +1.58E+05  +6.63E+05  +7.95E+04  +8.972E+00  +1.249E+02  -2.771E+02  -9.882E+01  -8.699E+02  +6.744E+01  +1.563E+03
  +1.83E+05  +6.62E+05  +9.90E+04  +8.972E+00  +1.249E+02  -2.771E+02  -9.882E+01  -8.699E+02  +6.744E+01  +1.563E+03
  +1.55E+05  +6.66E+05  +1.15E+05  +8.972E+00  +1.249E+02  -2.771E+02  -9.882E+01  -8.699E+02  +6.744E+01  +1.563E+03

element # = 1196     type =4-n tetrahedron
 XX         YY         ZZ         SIGXX       SIGYY       SIGZZ       TAUXY       TAUYZ       TAUZX       SIGV
  +1.61E+05  +7.48E+05  +2.34E+04  +4.515E+01  -9.193E+02  +1.398E+02  -1.127E+01  -5.906E+02  -2.595E+01  +1.442E+03
  +1.84E+05  +7.70E+05  +4.58E+04  +4.515E+01  -9.193E+02  +1.398E+02  -1.127E+01  -5.906E+02  -2.595E+01  +1.442E+03
  +1.84E+05  +7.48E+05  +4.58E+04  +4.515E+01  -9.193E+02  +1.398E+02  -1.127E+01  -5.906E+02  -2.595E+01  +1.442E+03
  +1.53E+05  +7.57E+05  +5.43E+04  +4.515E+01  -9.193E+02  +1.398E+02  -1.127E+01  -5.906E+02  -2.595E+01  +1.442E+03

element # = 1197     type =4-n tetrahedron
 XX         YY         ZZ         SIGXX       SIGYY       SIGZZ       TAUXY       TAUYZ       TAUZX       SIGV
  +4.22E+04  +3.43E+05  +1.94E+05  +5.376E+02  +1.463E+04  -3.041E+02  -1.238E+02  -1.445E+03  -5.327E+02  +1.478E+04
  +1.99E+04  +3.33E+05  +1.94E+05  +5.376E+02  +1.463E+04  -3.041E+02  -1.238E+02  -1.445E+03  -5.327E+02  +1.478E+04
  +4.22E+04  +3.22E+05  +1.94E+05  +5.376E+02  +1.463E+04  -3.041E+02  -1.238E+02  -1.445E+03  -5.327E+02  +1.478E+04
  +3.94E+04  +3.32E+05  +1.75E+05  +5.376E+02  +1.463E+04  -3.041E+02  -1.238E+02  -1.445E+03  -5.327E+02  +1.478E+04

element # = 1198     type =4-n tetrahedron
 XX         YY         ZZ         SIGXX       SIGYY       SIGZZ       TAUXY       TAUYZ       TAUZX       SIGV
  +7.78E+04  +9.94E+05  +9.02E+04  +2.914E+01  -8.940E+00  -1.300E+02  -7.722E-01  -8.754E+01  -3.613E+00  +2.091E+02
  +5.33E+04  +9.76E+05  +7.99E+04  +2.914E+01  -8.940E+00  -1.300E+02  -7.722E-01  -8.754E+01  -3.613E+00  +2.091E+02
  +5.62E+04  +9.94E+05  +6.85E+04  +2.914E+01  -8.940E+00  -1.300E+02  -7.722E-01  -8.754E+01  -3.613E+00  +2.091E+02
  +5.22E+04  +9.94E+05  +9.02E+04  +2.914E+01  -8.940E+00  -1.300E+02  -7.722E-01  -8.754E+01  -3.613E+00  +2.091E+02

element # = 1199     type =4-n tetrahedron
 XX         YY         ZZ         SIGXX       SIGYY       SIGZZ       TAUXY       TAUYZ       TAUZX       SIGV
  +6.89E+04  +9.56E+05  +1.96E+05  -6.773E+01  -4.541E-01  -5.083E+02  -2.262E+01  -3.083E+01  -2.133E+01  +4.838E+02
  +8.84E+04  +9.61E+05  +1.81E+05  -6.773E+01  -4.541E-01  -5.083E+02  -2.262E+01  -3.083E+01  -2.133E+01  +4.838E+02
  +9.01E+04  +9.62E+05  +1.96E+05  -6.773E+01  -4.541E-01  -5.083E+02  -2.262E+01  -3.083E+01  -2.133E+01  +4.838E+02
  +8.12E+04  +9.81E+05  +1.96E+05  -6.773E+01  -4.541E-01  -5.083E+02  -2.262E+01  -3.083E+01  -2.133E+01  +4.838E+02

element # = 1200     type =4-n tetrahedron
 XX         YY         ZZ         SIGXX       SIGYY       SIGZZ       TAUXY       TAUYZ       TAUZX       SIGV
  +1.50E+05  +3.73E+05  +1.54E+05  -1.821E+02  +5.845E+03  -6.455E+02  -1.265E+02  -1.471E+03  +6.017E+02  +6.853E+03
  +1.52E+05  +3.37E+05  +1.50E+05  -1.821E+02  +5.845E+03  -6.455E+02  -1.265E+02  -1.471E+03  +6.017E+02  +6.853E+03
  +1.55E+05  +3.56E+05  +1.77E+05  -1.821E+02  +5.845E+03  -6.455E+02  -1.265E+02  -1.471E+03  +6.017E+02  +6.853E+03
  +1.77E+05  +3.56E+05  +1.55E+05  -1.821E+02  +5.845E+03  -6.455E+02  -1.265E+02  -1.471E+03  +6.017E+02  +6.853E+03

element # = 1201     type =4-n tetrahedron
 XX         YY         ZZ         SIGXX       SIGYY       SIGZZ       TAUXY       TAUYZ       TAUZX       SIGV
  +1.14E+05  +4.38E+05  +1.38E+05  -7.803E+01  +5.069E+03  -6.466E+02  +5.283E+01  -5.601E+02  +3.311E+02  +5.569E+03
  +1.35E+05  +4.37E+05  +1.54E+05  -7.803E+01  +5.069E+03  -6.466E+02  +5.283E+01  -5.601E+02  +3.311E+02  +5.569E+03
  +1.30E+05  +4.14E+05  +1.51E+05  -7.803E+01  +5.069E+03  -6.466E+02  +5.283E+01  -5.601E+02  +3.311E+02  +5.569E+03
  +1.13E+05  +4.29E+05  +1.75E+05  -7.803E+01  +5.069E+03  -6.466E+02  +5.283E+01  -5.601E+02  +3.311E+02  +5.569E+03

element # = 1202     type =4-n tetrahedron
 XX         YY         ZZ         SIGXX       SIGYY       SIGZZ       TAUXY       TAUYZ       TAUZX       SIGV
  +1.82E+05  +3.59E+05  +9.96E+04  +1.022E+02  -1.184E+02  -6.339E+02  +2.853E+02  -3.993E+03  +6.454E+01  +6.966E+03
  +1.57E+05  +3.29E+05  +1.17E+05  +1.022E+02  -1.184E+02  -6.339E+02  +2.853E+02  -3.993E+03  +6.454E+01  +6.966E+03
  +1.82E+05  +3.38E+05  +9.96E+04  +1.022E+02  -1.184E+02  -6.339E+02  +2.853E+02  -3.993E+03  +6.454E+01  +6.966E+03
  +1.48E+05  +3.39E+05  +8.09E+04  +1.022E+02  -1.184E+02  -6.339E+02  +2.853E+02  -3.993E+03  +6.454E+01  +6.966E+03

element # = 1203     type =4-n tetrahedron
 XX         YY         ZZ         SIGXX       SIGYY       SIGZZ       TAUXY       TAUYZ       TAUZX       SIGV
  +5.70E+04  +3.72E+05  +5.67E+03  -6.676E+02  -1.364E+04  -1.670E+01  +9.635E+00  -8.639E+01  +7.651E+02  +1.338E+04
  +5.74E+04  +3.90E+05  +2.40E+04  -6.676E+02  -1.364E+04  -1.670E+01  +9.635E+00  -8.639E+01  +7.651E+02  +1.338E+04
  +5.70E+04  +3.94E+05  +5.67E+03  -6.676E+02  -1.364E+04  -1.670E+01  +9.635E+00  -8.639E+01  +7.651E+02  +1.338E+04
  +7.94E+04  +3.83E+05  +5.67E+03  -6.676E+02  -1.364E+04  -1.670E+01  +9.635E+00  -8.639E+01  +7.651E+02  +1.338E+04

element # = 1204     type =4-n tetrahedron
 XX         YY         ZZ         SIGXX       SIGYY       SIGZZ       TAUXY       TAUYZ       TAUZX       SIGV
  +5.89E+04  +8.22E+05  +1.93E+05  -1.919E+01  +1.068E+03  -4.817E+02  -1.374E+02  -2.631E+02  +1.705E+01  +1.471E+03
  +8.12E+04  +8.11E+05  +1.93E+05  -1.919E+01  +1.068E+03  -4.817E+02  -1.374E+02  -2.631E+02  +1.705E+01  +1.471E+03
  +6.49E+04  +8.10E+05  +1.70E+05  -1.919E+01  +1.068E+03  -4.817E+02  -1.374E+02  -2.631E+02  +1.705E+01  +1.471E+03
  +5.89E+04  +8.00E+05  +1.93E+05  -1.919E+01  +1.068E+03  -4.817E+02  -1.374E+02  -2.631E+02  +1.705E+01  +1.471E+03

element # = 1205     type =4-n tetrahedron
 XX         YY         ZZ         SIGXX       SIGYY       SIGZZ       TAUXY       TAUYZ       TAUZX       SIGV
  +2.27E+04  +8.10E+05  +1.93E+05  +1.438E+01  +1.068E+03  -5.158E+02  -9.095E+01  -2.507E+02  -4.243E+01  +1.472E+03
  +4.51E+04  +8.22E+05  +1.93E+05  +1.438E+01  +1.068E+03  -5.158E+02  -9.095E+01  -2.507E+02  -4.243E+01  +1.472E+03
  +5.11E+04  +8.10E+05  +1.70E+05  +1.438E+01  +1.068E+03  -5.158E+02  -9.095E+01  -2.507E+02  -4.243E+01  +1.472E+03
  +4.51E+04  +8.00E+05  +1.93E+05  +1.438E+01  +1.068E+03  -5.158E+02  -9.095E+01  -2.507E+02  -4.243E+01  +1.472E+03

element # = 1206     type =4-n tetrahedron
 XX         YY         ZZ         SIGXX       SIGYY       SIGZZ       TAUXY       TAUYZ       TAUZX       SIGV
  +8.05E+04  +7.01E+05  +9.03E+04  -1.680E+00  +5.194E+01  -4.313E+02  +1.252E+02  -9.335E+02  +2.640E+01  +1.695E+03
  +7.67E+04  +7.11E+05  +1.23E+05  -1.680E+00  +5.194E+01  -4.313E+02  +1.252E+02  -9.335E+02  +2.640E+01  +1.695E+03
  +6.16E+04  +6.95E+05  +1.07E+05  -1.680E+00  +5.194E+01  -4.313E+02  +1.252E+02  -9.335E+02  +2.640E+01  +1.695E+03
  +6.43E+04  +7.18E+05  +9.46E+04  -1.680E+00  +5.194E+01  -4.313E+02  +1.252E+02  -9.335E+02  +2.640E+01  +1.695E+03

element # = 1207     type =4-n tetrahedron
 XX         YY         ZZ         SIGXX       SIGYY       SIGZZ       TAUXY       TAUYZ       TAUZX       SIGV
  +1.61E+04  +7.79E+05  +8.67E+04  +1.466E+02  +1.174E+01  -1.479E+02  -5.541E+00  -7.401E+02  +2.217E+01  +1.308E+03
  +1.61E+04  +7.90E+05  +6.44E+04  +1.466E+02  +1.174E+01  -1.479E+02  -5.541E+00  -7.401E+02  +2.217E+01  +1.308E+03
  +4.95E+04  +7.92E+05  +7.14E+04  +1.466E+02  +1.174E+01  -1.479E+02  -5.541E+00  -7.401E+02  +2.217E+01  +1.308E+03
  +3.49E+04  +8.07E+05  +8.12E+04  +1.466E+02  +1.174E+01  -1.479E+02  -5.541E+00  -7.401E+02  +2.217E+01  +1.308E+03

element # = 1208     type =4-n tetrahedron
 XX         YY         ZZ         SIGXX       SIGYY       SIGZZ       TAUXY       TAUYZ       TAUZX       SIGV
  +1.81E+04  +7.66E+05  +8.61E+04  +2.213E+01  -4.203E+02  -1.172E+02  +3.053E+01  -6.554E+02  -1.295E+00  +1.202E+03
  +1.81E+04  +7.77E+05  +6.38E+04  +2.213E+01  -4.203E+02  -1.172E+02  +3.053E+01  -6.554E+02  -1.295E+00  +1.202E+03
  +4.33E+04  +7.53E+05  +7.86E+04  +2.213E+01  -4.203E+02  -1.172E+02  +3.053E+01  -6.554E+02  -1.295E+00  +1.202E+03
  +5.15E+04  +7.80E+05  +7.08E+04  +2.213E+01  -4.203E+02  -1.172E+02  +3.053E+01  -6.554E+02  -1.295E+00  +1.202E+03

element # = 1209     type =4-n tetrahedron
 XX         YY         ZZ         SIGXX       SIGYY       SIGZZ       TAUXY       TAUYZ       TAUZX       SIGV
  +9.86E+04  +2.52E+05  +1.45E+04  -3.679E+03  -1.863E+04  -1.613E+03  -4.890E+02  -7.916E+02  +9.873E+01  +1.617E+04
  +7.65E+04  +2.68E+05  +3.57E+04  -3.679E+03  -1.863E+04  -1.613E+03  -4.890E+02  -7.916E+02  +9.873E+01  +1.617E+04
  +9.86E+04  +2.73E+05  +1.45E+04  -3.679E+03  -1.863E+04  -1.613E+03  -4.890E+02  -7.916E+02  +9.873E+01  +1.617E+04
  +1.16E+05  +2.62E+05  +4.01E+04  -3.679E+03  -1.863E+04  -1.613E+03  -4.890E+02  -7.916E+02  +9.873E+01  +1.617E+04

element # = 1210     type =4-n tetrahedron
 XX         YY         ZZ         SIGXX       SIGYY       SIGZZ       TAUXY       TAUYZ       TAUZX       SIGV
  +1.40E+05  +7.73E+05  +1.49E+05  -1.003E+02  +6.107E+02  -6.175E+02  +1.681E+01  -3.900E+02  +8.965E+01  +1.274E+03
  +1.51E+05  +7.88E+05  +1.75E+05  -1.003E+02  +6.107E+02  -6.175E+02  +1.681E+01  -3.900E+02  +8.965E+01  +1.274E+03
  +1.41E+05  +8.06E+05  +1.44E+05  -1.003E+02  +6.107E+02  -6.175E+02  +1.681E+01  -3.900E+02  +8.965E+01  +1.274E+03
  +1.73E+05  +7.88E+05  +1.53E+05  -1.003E+02  +6.107E+02  -6.175E+02  +1.681E+01  -3.900E+02  +8.965E+01  +1.274E+03

element # = 1211     type =4-n tetrahedron
 XX         YY         ZZ         SIGXX       SIGYY       SIGZZ       TAUXY       TAUYZ       TAUZX       SIGV
  +9.26E+04  +2.76E+05  +7.49E+04  -2.295E+03  -9.187E+03  -5.814E+03  -2.495E+02  +8.054E+02  +8.785E+02  +6.331E+03
  +9.19E+04  +2.41E+05  +6.19E+04  -2.295E+03  -9.187E+03  -5.814E+03  -2.495E+02  +8.054E+02  +8.785E+02  +6.331E+03
  +1.14E+05  +2.60E+05  +6.07E+04  -2.295E+03  -9.187E+03  -5.814E+03  -2.495E+02  +8.054E+02  +8.785E+02  +6.331E+03
  +7.41E+04  +2.66E+05  +5.63E+04  -2.295E+03  -9.187E+03  -5.814E+03  -2.495E+02  +8.054E+02  +8.785E+02  +6.331E+03

element # = 1212     type =4-n tetrahedron
 XX         YY         ZZ         SIGXX       SIGYY       SIGZZ       TAUXY       TAUYZ       TAUZX       SIGV
  +1.36E+05  +5.18E+05  +3.71E+04  -9.551E+02  -7.059E+03  -7.102E+02  +5.855E+01  -1.284E+03  -2.713E+02  +6.632E+03
  +1.19E+05  +5.22E+05  +8.77E+03  -9.551E+02  -7.059E+03  -7.102E+02  +5.855E+01  -1.284E+03  -2.713E+02  +6.632E+03
  +1.41E+05  +5.12E+05  +8.77E+03  -9.551E+02  -7.059E+03  -7.102E+02  +5.855E+01  -1.284E+03  -2.713E+02  +6.632E+03
  +1.41E+05  +5.33E+05  +8.77E+03  -9.551E+02  -7.059E+03  -7.102E+02  +5.855E+01  -1.284E+03  -2.713E+02  +6.632E+03

element # = 1213     type =4-n tetrahedron
 XX         YY         ZZ         SIGXX       SIGYY       SIGZZ       TAUXY       TAUYZ       TAUZX       SIGV
  +1.64E+05  +1.96E+05  +6.94E+03  -9.979E+02  -2.160E+04  -2.055E+02  -5.855E+02  -1.279E+03  +9.642E+02  +2.122E+04
  +1.86E+05  +1.74E+05  +2.94E+04  -9.979E+02  -2.160E+04  -2.055E+02  -5.855E+02  -1.279E+03  +9.642E+02  +2.122E+04
  +1.86E+05  +1.86E+05  +6.94E+03  -9.979E+02  -2.160E+04  -2.055E+02  -5.855E+02  -1.279E+03  +9.642E+02  +2.122E+04
  +1.64E+05  +1.74E+05  +6.94E+03  -9.979E+02  -2.160E+04  -2.055E+02  -5.855E+02  -1.279E+03  +9.642E+02  +2.122E+04

element # = 1214     type =4-n tetrahedron
 XX         YY         ZZ         SIGXX       SIGYY       SIGZZ       TAUXY       TAUYZ       TAUZX       SIGV
  +3.93E+04  +1.96E+05  +6.74E+04  +1.986E+03  +1.204E+03  +1.156E+03  +3.953E+01  -4.012E+03  -9.538E+02  +7.189E+03
  +4.23E+04  +1.89E+05  +9.42E+04  +1.986E+03  +1.204E+03  +1.156E+03  +3.953E+01  -4.012E+03  -9.538E+02  +7.189E+03
  +1.95E+04  +2.00E+05  +8.29E+04  +1.986E+03  +1.204E+03  +1.156E+03  +3.953E+01  -4.012E+03  -9.538E+02  +7.189E+03
  +4.01E+04  +2.21E+05  +9.27E+04  +1.986E+03  +1.204E+03  +1.156E+03  +3.953E+01  -4.012E+03  -9.538E+02  +7.189E+03

element # = 1215     type =4-n tetrahedron
 XX         YY         ZZ         SIGXX       SIGYY       SIGZZ       TAUXY       TAUYZ       TAUZX       SIGV
  +1.22E+04  +2.42E+05  +1.24E+05  +1.599E+03  +8.816E+03  +3.266E+02  +2.354E+02  -3.049E+03  -3.239E+02  +9.552E+03
  +3.10E+04  +2.37E+05  +1.42E+05  +1.599E+03  +8.816E+03  +3.266E+02  +2.354E+02  -3.049E+03  -3.239E+02  +9.552E+03
  +1.22E+04  +2.53E+05  +1.44E+05  +1.599E+03  +8.816E+03  +3.266E+02  +2.354E+02  -3.049E+03  -3.239E+02  +9.552E+03
  +3.28E+04  +2.44E+05  +1.19E+05  +1.599E+03  +8.816E+03  +3.266E+02  +2.354E+02  -3.049E+03  -3.239E+02  +9.552E+03

element # = 1216     type =4-n tetrahedron
 XX         YY         ZZ         SIGXX       SIGYY       SIGZZ       TAUXY       TAUYZ       TAUZX       SIGV
  +1.83E+05  +3.76E+05  +4.53E+04  +2.531E+01  -5.808E+03  +1.027E+03  +2.447E+01  -3.737E+02  -4.448E+01  +6.427E+03
  +1.60E+05  +3.97E+05  +2.29E+04  +2.531E+01  -5.808E+03  +1.027E+03  +2.447E+01  -3.737E+02  -4.448E+01  +6.427E+03
  +1.83E+05  +3.97E+05  +4.53E+04  +2.531E+01  -5.808E+03  +1.027E+03  +2.447E+01  -3.737E+02  -4.448E+01  +6.427E+03
  +1.49E+05  +3.95E+05  +5.25E+04  +2.531E+01  -5.808E+03  +1.027E+03  +2.447E+01  -3.737E+02  -4.448E+01  +6.427E+03

element # = 1217     type =4-n tetrahedron
 XX         YY         ZZ         SIGXX       SIGYY       SIGZZ       TAUXY       TAUYZ       TAUZX       SIGV
  +1.93E+05  +3.73E+05  +3.62E+04  +1.250E+03  -5.452E+03  +9.882E+02  +3.370E+02  -6.863E+02  -2.817E+02  +6.725E+03
  +1.71E+05  +3.95E+05  +1.38E+04  +1.250E+03  -5.452E+03  +9.882E+02  +3.370E+02  -6.863E+02  -2.817E+02  +6.725E+03
  +1.93E+05  +3.84E+05  +1.38E+04  +1.250E+03  -5.452E+03  +9.882E+02  +3.370E+02  -6.863E+02  -2.817E+02  +6.725E+03
  +1.93E+05  +3.95E+05  +3.62E+04  +1.250E+03  -5.452E+03  +9.882E+02  +3.370E+02  -6.863E+02  -2.817E+02  +6.725E+03

element # = 1218     type =4-n tetrahedron
 XX         YY         ZZ         SIGXX       SIGYY       SIGZZ       TAUXY       TAUYZ       TAUZX       SIGV
  +1.92E+05  +3.62E+05  +1.12E+05  -1.453E+03  -8.347E+02  -1.467E+03  +1.597E+03  -2.130E+03  -5.722E+02  +4.757E+03
  +1.68E+05  +3.32E+05  +1.30E+05  -1.453E+03  -8.347E+02  -1.467E+03  +1.597E+03  -2.130E+03  -5.722E+02  +4.757E+03
  +1.92E+05  +3.51E+05  +1.35E+05  -1.453E+03  -8.347E+02  -1.467E+03  +1.597E+03  -2.130E+03  -5.722E+02  +4.757E+03
  +1.92E+05  +3.40E+05  +1.12E+05  -1.453E+03  -8.347E+02  -1.467E+03  +1.597E+03  -2.130E+03  -5.722E+02  +4.757E+03

element # = 1219     type =4-n tetrahedron
 XX         YY         ZZ         SIGXX       SIGYY       SIGZZ       TAUXY       TAUYZ       TAUZX       SIGV
  +1.17E+05  +3.62E+05  +1.07E+05  -1.987E+03  -5.511E+03  -5.006E+02  +2.190E+02  -2.713E+03  +3.580E+02  +6.518E+03
  +1.31E+05  +3.82E+05  +7.84E+04  -1.987E+03  -5.511E+03  -5.006E+02  +2.190E+02  -2.713E+03  +3.580E+02  +6.518E+03
  +1.30E+05  +3.54E+05  +7.49E+04  -1.987E+03  -5.511E+03  -5.006E+02  +2.190E+02  -2.713E+03  +3.580E+02  +6.518E+03
  +1.64E+05  +3.74E+05  +9.36E+04  -1.987E+03  -5.511E+03  -5.006E+02  +2.190E+02  -2.713E+03  +3.580E+02  +6.518E+03

element # = 1220     type =4-n tetrahedron
 XX         YY         ZZ         SIGXX       SIGYY       SIGZZ       TAUXY       TAUYZ       TAUZX       SIGV
  +1.35E+05  +3.73E+05  +1.51E+05  +9.386E+02  +6.533E+03  +5.039E+02  -7.120E+01  -1.602E+03  -1.039E+03  +6.699E+03
  +1.38E+05  +3.36E+05  +1.47E+05  +9.386E+02  +6.533E+03  +5.039E+02  -7.120E+01  -1.602E+03  -1.039E+03  +6.699E+03
  +1.15E+05  +3.54E+05  +1.43E+05  +9.386E+02  +6.533E+03  +5.039E+02  -7.120E+01  -1.602E+03  -1.039E+03  +6.699E+03
  +1.40E+05  +3.56E+05  +1.75E+05  +9.386E+02  +6.533E+03  +5.039E+02  -7.120E+01  -1.602E+03  -1.039E+03  +6.699E+03

element # = 1221     type =4-n tetrahedron
 XX         YY         ZZ         SIGXX       SIGYY       SIGZZ       TAUXY       TAUYZ       TAUZX       SIGV
  +6.26E+03  +4.20E+05  +8.68E+04  -1.421E+03  -5.374E+03  -6.311E+02  -3.084E+02  -2.310E+03  +2.014E+02  +5.983E+03
  +2.65E+04  +4.13E+05  +8.61E+04  -1.421E+03  -5.374E+03  -6.311E+02  -3.084E+02  -2.310E+03  +2.014E+02  +5.983E+03
  +6.26E+03  +4.33E+05  +6.37E+04  -1.421E+03  -5.374E+03  -6.311E+02  -3.084E+02  -2.310E+03  +2.014E+02  +5.983E+03
  +6.26E+03  +4.11E+05  +6.21E+04  -1.421E+03  -5.374E+03  -6.311E+02  -3.084E+02  -2.310E+03  +2.014E+02  +5.983E+03

element # = 1222     type =4-n tetrahedron
 XX         YY         ZZ         SIGXX       SIGYY       SIGZZ       TAUXY       TAUYZ       TAUZX       SIGV
  +1.59E+05  +7.78E+04  +8.58E+04  -1.329E+03  +7.786E+02  +5.211E-02  +3.731E+01  -1.422E+03  -5.794E+02  +3.238E+03
  +1.58E+05  +6.38E+04  +1.29E+05  -1.329E+03  +7.786E+02  +5.211E-02  +3.731E+01  -1.422E+03  -5.794E+02  +3.238E+03
  +1.84E+05  +7.72E+04  +1.03E+05  -1.329E+03  +7.786E+02  +5.211E-02  +3.731E+01  -1.422E+03  -5.794E+02  +3.238E+03
  +1.84E+05  +5.63E+04  +1.03E+05  -1.329E+03  +7.786E+02  +5.211E-02  +3.731E+01  -1.422E+03  -5.794E+02  +3.238E+03

element # = 1223     type =4-n tetrahedron
 XX         YY         ZZ         SIGXX       SIGYY       SIGZZ       TAUXY       TAUYZ       TAUZX       SIGV
  +3.61E+04  +3.94E+05  +5.60E+04  +9.655E+02  -2.314E+03  +1.075E+02  -1.739E+02  -1.759E+03  +1.308E+02  +4.254E+03
  +1.33E+04  +3.83E+05  +7.54E+04  +9.655E+02  -2.314E+03  +1.075E+02  -1.739E+02  -1.759E+03  +1.308E+02  +4.254E+03
  +1.33E+04  +3.97E+05  +5.85E+04  +9.655E+02  -2.314E+03  +1.075E+02  -1.739E+02  -1.759E+03  +1.308E+02  +4.254E+03
  +3.36E+04  +3.99E+05  +8.25E+04  +9.655E+02  -2.314E+03  +1.075E+02  -1.739E+02  -1.759E+03  +1.308E+02  +4.254E+03

element # = 1224     type =4-n tetrahedron
 XX         YY         ZZ         SIGXX       SIGYY       SIGZZ       TAUXY       TAUYZ       TAUZX       SIGV
  +1.93E+05  +6.29E+05  +1.44E+05  +6.603E+01  +2.118E+03  -3.148E+02  +4.802E+01  -1.270E+03  -3.555E+02  +3.219E+03
  +1.93E+05  +6.19E+05  +1.21E+05  +6.603E+01  +2.118E+03  -3.148E+02  +4.802E+01  -1.270E+03  -3.555E+02  +3.219E+03
  +1.72E+05  +6.17E+05  +1.45E+05  +6.603E+01  +2.118E+03  -3.148E+02  +4.802E+01  -1.270E+03  -3.555E+02  +3.219E+03
  +1.93E+05  +6.08E+05  +1.44E+05  +6.603E+01  +2.118E+03  -3.148E+02  +4.802E+01  -1.270E+03  -3.555E+02  +3.219E+03

element # = 1225     type =4-n tetrahedron
 XX         YY         ZZ         SIGXX       SIGYY       SIGZZ       TAUXY       TAUYZ       TAUZX       SIGV
  +8.42E+04  +9.15E+05  +6.53E+03  +5.901E+01  -1.746E+02  -3.361E+01  +4.173E+01  -1.251E+02  -3.335E+01  +3.116E+02
  +7.65E+04  +9.22E+05  +2.76E+04  +5.901E+01  -1.746E+02  -3.361E+01  +4.173E+01  -1.251E+02  -3.335E+01  +3.116E+02
  +6.21E+04  +9.04E+05  +6.53E+03  +5.901E+01  -1.746E+02  -3.361E+01  +4.173E+01  -1.251E+02  -3.335E+01  +3.116E+02
  +6.30E+04  +9.30E+05  +6.53E+03  +5.901E+01  -1.746E+02  -3.361E+01  +4.173E+01  -1.251E+02  -3.335E+01  +3.116E+02

element # = 1226     type =4-n tetrahedron
 XX         YY         ZZ         SIGXX       SIGYY       SIGZZ       TAUXY       TAUYZ       TAUZX       SIGV
  +1.41E+05  +1.18E+05  +1.51E+05  +1.562E+03  +1.547E+04  +1.619E+02  +3.099E+02  +1.450E+03  +2.188E+02  +1.489E+04
  +1.52E+05  +1.09E+05  +1.79E+05  +1.562E+03  +1.547E+04  +1.619E+02  +3.099E+02  +1.450E+03  +2.188E+02  +1.489E+04
  +1.75E+05  +1.09E+05  +1.56E+05  +1.562E+03  +1.547E+04  +1.619E+02  +3.099E+02  +1.450E+03  +2.188E+02  +1.489E+04
  +1.48E+05  +8.37E+04  +1.61E+05  +1.562E+03  +1.547E+04  +1.619E+02  +3.099E+02  +1.450E+03  +2.188E+02  +1.489E+04

element # = 1227     type =4-n tetrahedron
 XX         YY         ZZ         SIGXX       SIGYY       SIGZZ       TAUXY       TAUYZ       TAUZX       SIGV
  +1.55E+05  +8.01E+04  +1.47E+05  +8.842E+02  +1.224E+04  +8.385E+02  +5.942E+02  -3.096E+03  -2.468E+02  +1.263E+04
  +1.82E+05  +1.05E+05  +1.42E+05  +8.842E+02  +1.224E+04  +8.385E+02  +5.942E+02  -3.096E+03  -2.468E+02  +1.263E+04
  +1.48E+05  +1.15E+05  +1.37E+05  +8.842E+02  +1.224E+04  +8.385E+02  +5.942E+02  -3.096E+03  -2.468E+02  +1.263E+04
  +1.82E+05  +9.35E+04  +1.20E+05  +8.842E+02  +1.224E+04  +8.385E+02  +5.942E+02  -3.096E+03  -2.468E+02  +1.263E+04

element # = 1228     type =4-n tetrahedron
 XX         YY         ZZ         SIGXX       SIGYY       SIGZZ       TAUXY       TAUYZ       TAUZX       SIGV
  +2.26E+04  +6.28E+05  +1.20E+05  -1.554E+02  -1.852E+02  -6.203E+02  -2.696E+02  -1.222E+03  +1.354E+02  +2.227E+03
  +5.34E+03  +6.50E+05  +1.10E+05  -1.554E+02  -1.852E+02  -6.203E+02  -2.696E+02  -1.222E+03  +1.354E+02  +2.227E+03
  +5.34E+03  +6.39E+05  +1.32E+05  -1.554E+02  -1.852E+02  -6.203E+02  -2.696E+02  -1.222E+03  +1.354E+02  +2.227E+03
  +5.34E+03  +6.29E+05  +1.10E+05  -1.554E+02  -1.852E+02  -6.203E+02  -2.696E+02  -1.222E+03  +1.354E+02  +2.227E+03

element # = 1229     type =4-n tetrahedron
 XX         YY         ZZ         SIGXX       SIGYY       SIGZZ       TAUXY       TAUYZ       TAUZX       SIGV
  +6.34E+04  +7.51E+05  +1.24E+05  +1.480E+02  +8.915E+02  -1.433E+02  +5.408E+00  -8.610E+02  +3.837E+01  +1.756E+03
  +1.00E+05  +7.47E+05  +1.32E+05  +1.480E+02  +8.915E+02  -1.433E+02  +5.408E+00  -8.610E+02  +3.837E+01  +1.756E+03
  +6.84E+04  +7.38E+05  +1.06E+05  +1.480E+02  +8.915E+02  -1.433E+02  +5.408E+00  -8.610E+02  +3.837E+01  +1.756E+03
  +8.08E+04  +7.31E+05  +1.34E+05  +1.480E+02  +8.915E+02  -1.433E+02  +5.408E+00  -8.610E+02  +3.837E+01  +1.756E+03

element # = 1230     type =4-n tetrahedron
 XX         YY         ZZ         SIGXX       SIGYY       SIGZZ       TAUXY       TAUYZ       TAUZX       SIGV
  +1.93E+05  +5.37E+05  +6.91E+03  -1.841E+02  -6.995E+03  -3.221E+02  -2.465E+02  -8.681E+02  -2.571E+02  +6.936E+03
  +1.93E+05  +5.58E+05  +6.91E+03  -1.841E+02  -6.995E+03  -3.221E+02  -2.465E+02  -8.681E+02  -2.571E+02  +6.936E+03
  +1.93E+05  +5.48E+05  +2.93E+04  -1.841E+02  -6.995E+03  -3.221E+02  -2.465E+02  -8.681E+02  -2.571E+02  +6.936E+03
  +1.71E+05  +5.48E+05  +6.91E+03  -1.841E+02  -6.995E+03  -3.221E+02  -2.465E+02  -8.681E+02  -2.571E+02  +6.936E+03

element # = 1231     type =4-n tetrahedron
 XX         YY         ZZ         SIGXX       SIGYY       SIGZZ       TAUXY       TAUYZ       TAUZX       SIGV
  +1.58E+05  +5.73E+05  +3.76E+04  +6.728E+01  -4.864E+03  -7.372E+01  -2.345E+02  -8.832E+02  +1.000E+02  +5.117E+03
  +1.85E+05  +5.67E+05  +1.42E+04  +6.728E+01  -4.864E+03  -7.372E+01  -2.345E+02  -8.832E+02  +1.000E+02  +5.117E+03
  +1.62E+05  +5.56E+05  +1.42E+04  +6.728E+01  -4.864E+03  -7.372E+01  -2.345E+02  -8.832E+02  +1.000E+02  +5.117E+03
  +1.85E+05  +5.56E+05  +3.65E+04  +6.728E+01  -4.864E+03  -7.372E+01  -2.345E+02  -8.832E+02  +1.000E+02  +5.117E+03

element # = 1232     type =4-n tetrahedron
 XX         YY         ZZ         SIGXX       SIGYY       SIGZZ       TAUXY       TAUYZ       TAUZX       SIGV
  +1.85E+05  +3.75E+05  +1.57E+05  +1.498E+02  +6.468E+03  -1.310E+03  +1.596E+02  -4.286E+02  -2.158E+02  +7.214E+03
  +1.62E+05  +3.97E+05  +1.79E+05  +1.498E+02  +6.468E+03  -1.310E+03  +1.596E+02  -4.286E+02  -2.158E+02  +7.214E+03
  +1.58E+05  +3.92E+05  +1.55E+05  +1.498E+02  +6.468E+03  -1.310E+03  +1.596E+02  -4.286E+02  -2.158E+02  +7.214E+03
  +1.85E+05  +3.97E+05  +1.57E+05  +1.498E+02  +6.468E+03  -1.310E+03  +1.596E+02  -4.286E+02  -2.158E+02  +7.214E+03

element # = 1233     type =4-n tetrahedron
 XX         YY         ZZ         SIGXX       SIGYY       SIGZZ       TAUXY       TAUYZ       TAUZX       SIGV
  +4.32E+04  +7.28E+04  +4.25E+03  -3.015E+02  -2.706E+04  +9.115E+02  -2.763E+02  -1.600E+03  -1.143E+03  +2.760E+04
  +1.97E+04  +9.04E+04  +4.25E+03  -3.015E+02  -2.706E+04  +9.115E+02  -2.763E+02  -1.600E+03  -1.143E+03  +2.760E+04
  +4.23E+04  +9.85E+04  +4.25E+03  -3.015E+02  -2.706E+04  +9.115E+02  -2.763E+02  -1.600E+03  -1.143E+03  +2.760E+04
  +3.75E+04  +8.44E+04  +1.80E+04  -3.015E+02  -2.706E+04  +9.115E+02  -2.763E+02  -1.600E+03  -1.143E+03  +2.760E+04

element # = 1234     type =4-n tetrahedron
 XX         YY         ZZ         SIGXX       SIGYY       SIGZZ       TAUXY       TAUYZ       TAUZX       SIGV
  +1.09E+05  +1.93E+05  +1.32E+05  -4.310E+02  +7.930E+03  -1.806E+03  -1.193E+03  -3.888E+03  -2.095E+03  +1.209E+04
  +1.31E+05  +1.79E+05  +9.55E+04  -4.310E+02  +7.930E+03  -1.806E+03  -1.193E+03  -3.888E+03  -2.095E+03  +1.209E+04
  +1.25E+05  +1.63E+05  +1.28E+05  -4.310E+02  +7.930E+03  -1.806E+03  -1.193E+03  -3.888E+03  -2.095E+03  +1.209E+04
  +1.32E+05  +2.06E+05  +1.24E+05  -4.310E+02  +7.930E+03  -1.806E+03  -1.193E+03  -3.888E+03  -2.095E+03  +1.209E+04

element # = 1235     type =4-n tetrahedron
 XX         YY         ZZ         SIGXX       SIGYY       SIGZZ       TAUXY       TAUYZ       TAUZX       SIGV
  +8.78E+04  +7.28E+03  +1.62E+05  +8.293E+03  +1.935E+04  +8.293E+03  +3.246E+02  -5.303E+03  +0.000E+00  +1.439E+04
  +7.88E+04  +7.28E+03  +1.81E+05  +8.293E+03  +1.935E+04  +8.293E+03  +3.246E+02  -5.303E+03  +0.000E+00  +1.439E+04
  +6.62E+04  +7.28E+03  +1.58E+05  +8.293E+03  +1.935E+04  +8.293E+03  +3.246E+02  -5.303E+03  +0.000E+00  +1.439E+04
  +7.88E+04  +3.08E+04  +1.62E+05  +8.293E+03  +1.935E+04  +8.293E+03  +3.246E+02  -5.303E+03  +0.000E+00  +1.439E+04

element # = 1236     type =4-n tetrahedron
 XX         YY         ZZ         SIGXX       SIGYY       SIGZZ       TAUXY       TAUYZ       TAUZX       SIGV
  +1.10E+04  +3.05E+04  +1.07E+05  +2.309E+03  +3.576E+03  +1.002E+01  +1.388E+03  -1.013E+03  +6.972E+02  +4.485E+03
  +3.01E+04  +1.16E+04  +1.07E+05  +2.309E+03  +3.576E+03  +1.002E+01  +1.388E+03  -1.013E+03  +6.972E+02  +4.485E+03
  +1.10E+04  +1.16E+04  +1.15E+05  +2.309E+03  +3.576E+03  +1.002E+01  +1.388E+03  -1.013E+03  +6.972E+02  +4.485E+03
  +2.75E+04  +3.03E+04  +1.19E+05  +2.309E+03  +3.576E+03  +1.002E+01  +1.388E+03  -1.013E+03  +6.972E+02  +4.485E+03

element # = 1237     type =4-n tetrahedron
 XX         YY         ZZ         SIGXX       SIGYY       SIGZZ       TAUXY       TAUYZ       TAUZX       SIGV
  +6.98E+04  +8.46E+05  +7.30E+04  -1.248E+01  -3.201E+02  -7.580E+01  +1.147E+02  -4.373E+02  -1.691E+01  +8.326E+02
  +6.77E+04  +8.12E+05  +6.68E+04  -1.248E+01  -3.201E+02  -7.580E+01  +1.147E+02  -4.373E+02  -1.691E+01  +8.326E+02
  +5.74E+04  +8.28E+05  +5.41E+04  -1.248E+01  -3.201E+02  -7.580E+01  +1.147E+02  -4.373E+02  -1.691E+01  +8.326E+02
  +5.31E+04  +8.27E+05  +7.67E+04  -1.248E+01  -3.201E+02  -7.580E+01  +1.147E+02  -4.373E+02  -1.691E+01  +8.326E+02

element # = 1238     type =4-n tetrahedron
 XX         YY         ZZ         SIGXX       SIGYY       SIGZZ       TAUXY       TAUYZ       TAUZX       SIGV
  +8.31E+04  +8.50E+05  +6.94E+04  -4.347E+01  -3.912E+02  -2.115E+02  -2.159E+00  -3.477E+02  +2.979E+01  +6.753E+02
  +8.09E+04  +8.16E+05  +6.32E+04  -4.347E+01  -3.912E+02  -2.115E+02  -2.159E+00  -3.477E+02  +2.979E+01  +6.753E+02
  +1.09E+05  +8.41E+05  +6.16E+04  -4.347E+01  -3.912E+02  -2.115E+02  -2.159E+00  -3.477E+02  +2.979E+01  +6.753E+02
  +7.06E+04  +8.31E+05  +5.05E+04  -4.347E+01  -3.912E+02  -2.115E+02  -2.159E+00  -3.477E+02  +2.979E+01  +6.753E+02

element # = 1239     type =4-n tetrahedron
 XX         YY         ZZ         SIGXX       SIGYY       SIGZZ       TAUXY       TAUYZ       TAUZX       SIGV
  +9.95E+04  +6.39E+05  +1.85E+05  +9.815E+02  +4.494E+03  +7.402E+01  -4.115E+01  -3.916E+02  -5.914E+01  +4.102E+03
  +1.16E+05  +6.65E+05  +1.57E+05  +9.815E+02  +4.494E+03  +7.402E+01  -4.115E+01  -3.916E+02  -5.914E+01  +4.102E+03
  +9.95E+04  +6.61E+05  +1.85E+05  +9.815E+02  +4.494E+03  +7.402E+01  -4.115E+01  -3.916E+02  -5.914E+01  +4.102E+03
  +8.11E+04  +6.57E+05  +1.67E+05  +9.815E+02  +4.494E+03  +7.402E+01  -4.115E+01  -3.916E+02  -5.914E+01  +4.102E+03

element # = 1240     type =4-n tetrahedron
 XX         YY         ZZ         SIGXX       SIGYY       SIGZZ       TAUXY       TAUYZ       TAUZX       SIGV
  +1.14E+05  +6.47E+03  +9.33E+04  -2.101E+02  -4.902E+02  -2.101E+02  +1.686E+02  -3.308E+03  +0.000E+00  +5.744E+03
  +1.40E+05  +6.47E+03  +9.33E+04  -2.101E+02  -4.902E+02  -2.101E+02  +1.686E+02  -3.308E+03  +0.000E+00  +5.744E+03
  +1.13E+05  +2.74E+04  +9.34E+04  -2.101E+02  -4.902E+02  -2.101E+02  +1.686E+02  -3.308E+03  +0.000E+00  +5.744E+03
  +1.36E+05  +6.47E+03  +7.17E+04  -2.101E+02  -4.902E+02  -2.101E+02  +1.686E+02  -3.308E+03  +0.000E+00  +5.744E+03

element # = 1241     type =4-n tetrahedron
 XX         YY         ZZ         SIGXX       SIGYY       SIGZZ       TAUXY       TAUYZ       TAUZX       SIGV
  +4.78E+04  +5.56E+04  +8.58E+04  -2.254E+03  -6.381E+03  -3.419E+03  -2.021E+03  -7.632E+01  +2.162E+03  +6.314E+03
  +4.99E+04  +7.49E+04  +8.24E+04  -2.254E+03  -6.381E+03  -3.419E+03  -2.021E+03  -7.632E+01  +2.162E+03  +6.314E+03
  +7.51E+04  +5.82E+04  +9.57E+04  -2.254E+03  -6.381E+03  -3.419E+03  -2.021E+03  -7.632E+01  +2.162E+03  +6.314E+03
  +5.39E+04  +8.05E+04  +1.05E+05  -2.254E+03  -6.381E+03  -3.419E+03  -2.021E+03  -7.632E+01  +2.162E+03  +6.314E+03

element # = 1242     type =4-n tetrahedron
 XX         YY         ZZ         SIGXX       SIGYY       SIGZZ       TAUXY       TAUYZ       TAUZX       SIGV
  +1.60E+05  +6.62E+05  +3.99E+04  -7.567E+01  -2.946E+03  +9.666E+01  -9.036E+01  -6.593E+02  +8.393E+01  +3.180E+03
  +1.85E+05  +6.60E+05  +1.47E+04  -7.567E+01  -2.946E+03  +9.666E+01  -9.036E+01  -6.593E+02  +8.393E+01  +3.180E+03
  +1.63E+05  +6.50E+05  +1.47E+04  -7.567E+01  -2.946E+03  +9.666E+01  -9.036E+01  -6.593E+02  +8.393E+01  +3.180E+03
  +1.85E+05  +6.50E+05  +3.71E+04  -7.567E+01  -2.946E+03  +9.666E+01  -9.036E+01  -6.593E+02  +8.393E+01  +3.180E+03

element # = 1243     type =4-n tetrahedron
 XX         YY         ZZ         SIGXX       SIGYY       SIGZZ       TAUXY       TAUYZ       TAUZX       SIGV
  +1.81E+05  +8.26E+05  +9.90E+04  -2.792E+01  -4.527E+01  -2.314E+02  -2.574E+00  -5.482E+02  +5.193E+01  +9.736E+02
  +1.81E+05  +8.48E+05  +9.90E+04  -2.792E+01  -4.527E+01  -2.314E+02  -2.574E+00  -5.482E+02  +5.193E+01  +9.736E+02
  +1.49E+05  +8.33E+05  +1.13E+05  -2.792E+01  -4.527E+01  -2.314E+02  -2.574E+00  -5.482E+02  +5.193E+01  +9.736E+02
  +1.54E+05  +8.43E+05  +8.20E+04  -2.792E+01  -4.527E+01  -2.314E+02  -2.574E+00  -5.482E+02  +5.193E+01  +9.736E+02

element # = 1244     type =4-n tetrahedron
 XX         YY         ZZ         SIGXX       SIGYY       SIGZZ       TAUXY       TAUYZ       TAUZX       SIGV
  +1.93E+05  +3.26E+05  +1.64E+05  -1.973E+03  +6.096E+03  -1.712E+03  -3.531E+02  -1.575E+03  -2.258E+02  +8.429E+03
  +1.93E+05  +3.37E+05  +1.86E+05  -1.973E+03  +6.096E+03  -1.712E+03  -3.531E+02  -1.575E+03  -2.258E+02  +8.429E+03
  +1.71E+05  +3.47E+05  +1.86E+05  -1.973E+03  +6.096E+03  -1.712E+03  -3.531E+02  -1.575E+03  -2.258E+02  +8.429E+03
  +1.93E+05  +3.47E+05  +1.64E+05  -1.973E+03  +6.096E+03  -1.712E+03  -3.531E+02  -1.575E+03  -2.258E+02  +8.429E+03

element # = 1245     type =4-n tetrahedron
 XX         YY         ZZ         SIGXX       SIGYY       SIGZZ       TAUXY       TAUYZ       TAUZX       SIGV
  +4.78E+04  +8.60E+05  +5.29E+04  -6.226E+01  -3.461E+02  -9.453E+01  +1.289E+02  -4.445E+02  -1.021E+01  +8.458E+02
  +5.27E+04  +8.39E+05  +5.08E+04  -6.226E+01  -3.461E+02  -9.453E+01  +1.289E+02  -4.445E+02  -1.021E+01  +8.458E+02
  +4.84E+04  +8.38E+05  +7.34E+04  -6.226E+01  -3.461E+02  -9.453E+01  +1.289E+02  -4.445E+02  -1.021E+01  +8.458E+02
  +6.51E+04  +8.57E+05  +6.97E+04  -6.226E+01  -3.461E+02  -9.453E+01  +1.289E+02  -4.445E+02  -1.021E+01  +8.458E+02

element # = 1246     type =4-n tetrahedron
 XX         YY         ZZ         SIGXX       SIGYY       SIGZZ       TAUXY       TAUYZ       TAUZX       SIGV
  +1.29E+05  +1.50E+05  +7.39E+04  -1.455E+03  -1.113E+04  -1.903E+03  -1.140E+02  -3.121E+03  -1.347E+03  +1.115E+04
  +1.31E+05  +1.13E+05  +7.21E+04  -1.455E+03  -1.113E+04  -1.903E+03  -1.140E+02  -3.121E+03  -1.347E+03  +1.115E+04
  +9.87E+04  +1.31E+05  +7.00E+04  -1.455E+03  -1.113E+04  -1.903E+03  -1.140E+02  -3.121E+03  -1.347E+03  +1.115E+04
  +1.23E+05  +1.33E+05  +1.06E+05  -1.455E+03  -1.113E+04  -1.903E+03  -1.140E+02  -3.121E+03  -1.347E+03  +1.115E+04

element # = 1247     type =4-n tetrahedron
 XX         YY         ZZ         SIGXX       SIGYY       SIGZZ       TAUXY       TAUYZ       TAUZX       SIGV
  +7.79E+04  +8.63E+05  +1.96E+05  +5.387E-01  +6.440E+02  -4.245E+02  -8.549E+01  -1.749E+02  +2.394E+01  +9.917E+02
  +5.07E+04  +8.66E+05  +1.82E+05  +5.387E-01  +6.440E+02  -4.245E+02  -8.549E+01  -1.749E+02  +2.394E+01  +9.917E+02
  +5.57E+04  +8.74E+05  +1.96E+05  +5.387E-01  +6.440E+02  -4.245E+02  -8.549E+01  -1.749E+02  +2.394E+01  +9.917E+02
  +5.56E+04  +8.51E+05  +1.96E+05  +5.387E-01  +6.440E+02  -4.245E+02  -8.549E+01  -1.749E+02  +2.394E+01  +9.917E+02

element # = 1248     type =4-n tetrahedron
 XX         YY         ZZ         SIGXX       SIGYY       SIGZZ       TAUXY       TAUYZ       TAUZX       SIGV
  +1.92E+05  +2.40E+05  +8.03E+04  -1.487E+03  -1.037E+04  -5.926E+02  -3.397E+02  -2.514E+03  -5.825E+02  +1.039E+04
  +1.92E+05  +2.51E+05  +5.80E+04  -1.487E+03  -1.037E+04  -5.926E+02  -3.397E+02  -2.514E+03  -5.825E+02  +1.039E+04
  +1.64E+05  +2.50E+05  +6.12E+04  -1.487E+03  -1.037E+04  -5.926E+02  -3.397E+02  -2.514E+03  -5.825E+02  +1.039E+04
  +1.92E+05  +2.29E+05  +5.80E+04  -1.487E+03  -1.037E+04  -5.926E+02  -3.397E+02  -2.514E+03  -5.825E+02  +1.039E+04

element # = 1249     type =4-n tetrahedron
 XX         YY         ZZ         SIGXX       SIGYY       SIGZZ       TAUXY       TAUYZ       TAUZX       SIGV
  +7.41E+04  +4.44E+04  +2.99E+04  -5.275E+03  -2.878E+04  -1.247E+03  -2.347E+02  -1.973E+03  +5.727E+02  +2.600E+04
  +5.91E+04  +4.54E+04  +1.06E+04  -5.275E+03  -2.878E+04  -1.247E+03  -2.347E+02  -1.973E+03  +5.727E+02  +2.600E+04
  +5.31E+04  +3.72E+04  +2.58E+04  -5.275E+03  -2.878E+04  -1.247E+03  -2.347E+02  -1.973E+03  +5.727E+02  +2.600E+04
  +7.14E+04  +2.04E+04  +1.06E+04  -5.275E+03  -2.878E+04  -1.247E+03  -2.347E+02  -1.973E+03  +5.727E+02  +2.600E+04

element # = 1250     type =4-n tetrahedron
 XX         YY         ZZ         SIGXX       SIGYY       SIGZZ       TAUXY       TAUYZ       TAUZX       SIGV
  +3.77E+04  +2.62E+05  +1.72E+05  -2.069E+03  +1.026E+04  -1.095E+03  +9.439E+02  -8.616E+02  -3.312E+02  +1.209E+04
  +3.74E+04  +2.41E+05  +1.68E+05  -2.069E+03  +1.026E+04  -1.095E+03  +9.439E+02  -8.616E+02  -3.312E+02  +1.209E+04
  +1.86E+04  +2.45E+05  +1.89E+05  -2.069E+03  +1.026E+04  -1.095E+03  +9.439E+02  -8.616E+02  -3.312E+02  +1.209E+04
  +4.10E+04  +2.56E+05  +1.89E+05  -2.069E+03  +1.026E+04  -1.095E+03  +9.439E+02  -8.616E+02  -3.312E+02  +1.209E+04

element # = 1251     type =4-n tetrahedron
 XX         YY         ZZ         SIGXX       SIGYY       SIGZZ       TAUXY       TAUYZ       TAUZX       SIGV
  +3.88E+04  +2.79E+05  +1.79E+05  +4.242E+02  +1.750E+04  -4.594E+02  -2.827E+02  -2.090E+03  -5.763E+02  +1.794E+04
  +1.97E+04  +2.84E+05  +1.95E+05  +4.242E+02  +1.750E+04  -4.594E+02  -2.827E+02  -2.090E+03  -5.763E+02  +1.794E+04
  +4.21E+04  +2.95E+05  +1.95E+05  +4.242E+02  +1.750E+04  -4.594E+02  -2.827E+02  -2.090E+03  -5.763E+02  +1.794E+04
  +4.21E+04  +2.73E+05  +1.95E+05  +4.242E+02  +1.750E+04  -4.594E+02  -2.827E+02  -2.090E+03  -5.763E+02  +1.794E+04

element # = 1252     type =4-n tetrahedron
 XX         YY         ZZ         SIGXX       SIGYY       SIGZZ       TAUXY       TAUYZ       TAUZX       SIGV
  +1.57E+05  +6.02E+05  +1.58E+05  -2.529E+01  +2.295E+03  -6.549E+02  -1.938E+01  -7.391E+02  +2.811E+02  +3.019E+03
  +1.54E+05  +5.78E+05  +1.53E+05  -2.529E+01  +2.295E+03  -6.549E+02  -1.938E+01  -7.391E+02  +2.811E+02  +3.019E+03
  +1.56E+05  +5.93E+05  +1.79E+05  -2.529E+01  +2.295E+03  -6.549E+02  -1.938E+01  -7.391E+02  +2.811E+02  +3.019E+03
  +1.79E+05  +5.93E+05  +1.56E+05  -2.529E+01  +2.295E+03  -6.549E+02  -1.938E+01  -7.391E+02  +2.811E+02  +3.019E+03

element # = 1253     type =4-n tetrahedron
 XX         YY         ZZ         SIGXX       SIGYY       SIGZZ       TAUXY       TAUYZ       TAUZX       SIGV
  +1.08E+05  +9.94E+05  +1.90E+05  -1.205E+01  +3.332E+01  -4.805E+02  -1.619E+01  -2.385E+01  +9.377E+00  +4.955E+02
  +9.78E+04  +9.74E+05  +1.75E+05  -1.205E+01  +3.332E+01  -4.805E+02  -1.619E+01  -2.385E+01  +9.377E+00  +4.955E+02
  +9.95E+04  +9.94E+05  +1.71E+05  -1.205E+01  +3.332E+01  -4.805E+02  -1.619E+01  -2.385E+01  +9.377E+00  +4.955E+02
  +9.05E+04  +9.94E+05  +1.90E+05  -1.205E+01  +3.332E+01  -4.805E+02  -1.619E+01  -2.385E+01  +9.377E+00  +4.955E+02

element # = 1254     type =4-n tetrahedron
 XX         YY         ZZ         SIGXX       SIGYY       SIGZZ       TAUXY       TAUYZ       TAUZX       SIGV
  +1.58E+05  +8.82E+05  +1.24E+05  -7.886E+01  -3.365E+01  -2.679E+02  +2.862E+01  -4.110E+02  +4.628E+01  +7.496E+02
  +1.83E+05  +8.93E+05  +1.02E+05  -7.886E+01  -3.365E+01  -2.679E+02  +2.862E+01  -4.110E+02  +4.628E+01  +7.496E+02
  +1.56E+05  +8.65E+05  +8.48E+04  -7.886E+01  -3.365E+01  -2.679E+02  +2.862E+01  -4.110E+02  +4.628E+01  +7.496E+02
  +1.83E+05  +8.71E+05  +1.02E+05  -7.886E+01  -3.365E+01  -2.679E+02  +2.862E+01  -4.110E+02  +4.628E+01  +7.496E+02

element # = 1255     type =4-n tetrahedron
 XX         YY         ZZ         SIGXX       SIGYY       SIGZZ       TAUXY       TAUYZ       TAUZX       SIGV
  +7.81E+03  +8.75E+05  +1.40E+05  +1.615E+02  +4.819E+02  -1.657E+02  -5.031E+01  -5.052E+02  +5.237E+01  +1.047E+03
  +3.31E+04  +8.71E+05  +1.31E+05  +1.615E+02  +4.819E+02  -1.657E+02  -5.031E+01  -5.052E+02  +5.237E+01  +1.047E+03
  +7.81E+03  +8.64E+05  +1.18E+05  +1.615E+02  +4.819E+02  -1.657E+02  -5.031E+01  -5.052E+02  +5.237E+01  +1.047E+03
  +7.81E+03  +8.52E+05  +1.40E+05  +1.615E+02  +4.819E+02  -1.657E+02  -5.031E+01  -5.052E+02  +5.237E+01  +1.047E+03

element # = 1256     type =4-n tetrahedron
 XX         YY         ZZ         SIGXX       SIGYY       SIGZZ       TAUXY       TAUYZ       TAUZX       SIGV
  +1.28E+04  +3.02E+05  +1.72E+05  -5.548E+02  +1.236E+04  -6.381E+02  +7.493E+01  -1.327E+03  +2.032E+02  +1.317E+04
  +3.52E+04  +3.02E+05  +1.89E+05  -5.548E+02  +1.236E+04  -6.381E+02  +7.493E+01  -1.327E+03  +2.032E+02  +1.317E+04
  +3.19E+04  +2.86E+05  +1.73E+05  -5.548E+02  +1.236E+04  -6.381E+02  +7.493E+01  -1.327E+03  +2.032E+02  +1.317E+04
  +1.28E+04  +2.91E+05  +1.89E+05  -5.548E+02  +1.236E+04  -6.381E+02  +7.493E+01  -1.327E+03  +2.032E+02  +1.317E+04

element # = 1257     type =4-n tetrahedron
 XX         YY         ZZ         SIGXX       SIGYY       SIGZZ       TAUXY       TAUYZ       TAUZX       SIGV
  +7.07E+04  +9.10E+05  +5.56E+04  +2.045E+01  -1.857E+02  -1.367E+02  -3.056E+01  -3.050E+02  +9.854E+00  +5.630E+02
  +5.18E+04  +9.03E+05  +7.06E+04  +2.045E+01  -1.857E+02  -1.367E+02  -3.056E+01  -3.050E+02  +9.854E+00  +5.630E+02
  +6.92E+04  +8.83E+05  +7.01E+04  +2.045E+01  -1.857E+02  -1.367E+02  -3.056E+01  -3.050E+02  +9.854E+00  +5.630E+02
  +5.19E+04  +8.86E+05  +5.33E+04  +2.045E+01  -1.857E+02  -1.367E+02  -3.056E+01  -3.050E+02  +9.854E+00  +5.630E+02

element # = 1258     type =4-n tetrahedron
 XX         YY         ZZ         SIGXX       SIGYY       SIGZZ       TAUXY       TAUYZ       TAUZX       SIGV
  +1.35E+05  +1.10E+05  +8.53E+03  -2.514E+03  -2.492E+04  -2.814E+03  +5.919E+00  -2.509E+03  +1.202E+03  +2.277E+04
  +1.33E+05  +9.89E+04  +3.61E+04  -2.514E+03  -2.492E+04  -2.814E+03  +5.919E+00  -2.509E+03  +1.202E+03  +2.277E+04
  +1.13E+05  +9.83E+04  +8.53E+03  -2.514E+03  -2.492E+04  -2.814E+03  +5.919E+00  -2.509E+03  +1.202E+03  +2.277E+04
  +1.13E+05  +1.21E+05  +8.53E+03  -2.514E+03  -2.492E+04  -2.814E+03  +5.919E+00  -2.509E+03  +1.202E+03  +2.277E+04

element # = 1259     type =4-n tetrahedron
 XX         YY         ZZ         SIGXX       SIGYY       SIGZZ       TAUXY       TAUYZ       TAUZX       SIGV
  +8.06E+04  +8.58E+05  +1.79E+05  +1.736E+01  +5.658E+02  -3.305E+02  -1.572E+01  -3.049E+02  -4.903E+00  +9.446E+02
  +5.34E+04  +8.61E+05  +1.65E+05  +1.736E+01  +5.658E+02  -3.305E+02  -1.572E+01  -3.049E+02  -4.903E+00  +9.446E+02
  +6.43E+04  +8.34E+05  +1.56E+05  +1.736E+01  +5.658E+02  -3.305E+02  -1.572E+01  -3.049E+02  -4.903E+00  +9.446E+02
  +6.11E+04  +8.65E+05  +1.47E+05  +1.736E+01  +5.658E+02  -3.305E+02  -1.572E+01  -3.049E+02  -4.903E+00  +9.446E+02

element # = 1260     type =4-n tetrahedron
 XX         YY         ZZ         SIGXX       SIGYY       SIGZZ       TAUXY       TAUYZ       TAUZX       SIGV
  +1.71E+05  +2.03E+05  +1.39E+04  +2.362E+03  -9.635E+03  +1.326E+03  +6.314E+02  -1.378E+03  -3.482E+02  +1.182E+04
  +1.93E+05  +1.81E+05  +3.63E+04  +2.362E+03  -9.635E+03  +1.326E+03  +6.314E+02  -1.378E+03  -3.482E+02  +1.182E+04
  +1.93E+05  +2.03E+05  +3.63E+04  +2.362E+03  -9.635E+03  +1.326E+03  +6.314E+02  -1.378E+03  -3.482E+02  +1.182E+04
  +1.93E+05  +1.93E+05  +1.39E+04  +2.362E+03  -9.635E+03  +1.326E+03  +6.314E+02  -1.378E+03  -3.482E+02  +1.182E+04

element # = 1261     type =4-n tetrahedron
 XX         YY         ZZ         SIGXX       SIGYY       SIGZZ       TAUXY       TAUYZ       TAUZX       SIGV
  +1.17E+05  +8.57E+05  +1.84E+05  -2.134E+02  +1.461E+02  -6.005E+02  -7.572E+01  -3.572E+02  -4.853E+01  +9.084E+02
  +1.36E+05  +8.69E+05  +1.61E+05  -2.134E+02  +1.461E+02  -6.005E+02  -7.572E+01  -3.572E+02  -4.853E+01  +9.084E+02
  +1.29E+05  +8.42E+05  +1.53E+05  -2.134E+02  +1.461E+02  -6.005E+02  -7.572E+01  -3.572E+02  -4.853E+01  +9.084E+02
  +1.39E+05  +8.46E+05  +1.84E+05  -2.134E+02  +1.461E+02  -6.005E+02  -7.572E+01  -3.572E+02  -4.853E+01  +9.084E+02

element # = 1262     type =4-n tetrahedron
 XX         YY         ZZ         SIGXX       SIGYY       SIGZZ       TAUXY       TAUYZ       TAUZX       SIGV
  +3.16E+04  +9.66E+05  +1.18E+05  +1.677E+01  -1.284E+00  -3.019E+02  -1.428E+01  -1.056E+02  -3.991E+00  +3.609E+02
  +3.11E+04  +9.88E+05  +1.06E+05  +1.677E+01  -1.284E+00  -3.019E+02  -1.428E+01  -1.056E+02  -3.991E+00  +3.609E+02
  +1.20E+04  +9.88E+05  +1.15E+05  +1.677E+01  -1.284E+00  -3.019E+02  -1.428E+01  -1.056E+02  -3.991E+00  +3.609E+02
  +1.20E+04  +9.69E+05  +1.06E+05  +1.677E+01  -1.284E+00  -3.019E+02  -1.428E+01  -1.056E+02  -3.991E+00  +3.609E+02

element # = 1263     type =4-n tetrahedron
 XX         YY         ZZ         SIGXX       SIGYY       SIGZZ       TAUXY       TAUYZ       TAUZX       SIGV
  +2.96E+04  +6.37E+05  +1.22E+05  +2.093E+02  +8.274E+02  -2.542E+02  +1.249E+01  -1.114E+03  +8.903E+01  +2.151E+03
  +1.23E+04  +6.59E+05  +1.12E+05  +2.093E+02  +8.274E+02  -2.542E+02  +1.249E+01  -1.114E+03  +8.903E+01  +2.151E+03
  +3.47E+04  +6.65E+05  +1.17E+05  +2.093E+02  +8.274E+02  -2.542E+02  +1.249E+01  -1.114E+03  +8.903E+01  +2.151E+03
  +1.23E+04  +6.48E+05  +1.34E+05  +2.093E+02  +8.274E+02  -2.542E+02  +1.249E+01  -1.114E+03  +8.903E+01  +2.151E+03

element # = 1264     type =4-n tetrahedron
 XX         YY         ZZ         SIGXX       SIGYY       SIGZZ       TAUXY       TAUYZ       TAUZX       SIGV
  +7.97E+04  +6.19E+05  +1.95E+05  +3.166E+02  +4.775E+03  -3.267E+02  -1.128E+02  -6.322E+02  +2.446E+02  +4.957E+03
  +5.74E+04  +6.29E+05  +1.95E+05  +3.166E+02  +4.775E+03  -3.267E+02  -1.128E+02  -6.322E+02  +2.446E+02  +4.957E+03
  +5.74E+04  +6.08E+05  +1.95E+05  +3.166E+02  +4.775E+03  -3.267E+02  -1.128E+02  -6.322E+02  +2.446E+02  +4.957E+03
  +5.88E+04  +6.17E+05  +1.79E+05  +3.166E+02  +4.775E+03  -3.267E+02  -1.128E+02  -6.322E+02  +2.446E+02  +4.957E+03

element # = 1265     type =4-n tetrahedron
 XX         YY         ZZ         SIGXX       SIGYY       SIGZZ       TAUXY       TAUYZ       TAUZX       SIGV
  +3.12E+04  +9.89E+05  +9.41E+04  +8.080E-01  +8.277E+00  -1.981E+02  +1.198E+01  -1.049E+02  -1.908E+01  +2.750E+02
  +3.23E+04  +9.70E+05  +8.38E+04  +8.080E-01  +8.277E+00  -1.981E+02  +1.198E+01  -1.049E+02  -1.908E+01  +2.750E+02
  +1.21E+04  +9.89E+05  +8.51E+04  +8.080E-01  +8.277E+00  -1.981E+02  +1.198E+01  -1.049E+02  -1.908E+01  +2.750E+02
  +1.21E+04  +9.70E+05  +9.41E+04  +8.080E-01  +8.277E+00  -1.981E+02  +1.198E+01  -1.049E+02  -1.908E+01  +2.750E+02

element # = 1266     type =4-n tetrahedron
 XX         YY         ZZ         SIGXX       SIGYY       SIGZZ       TAUXY       TAUYZ       TAUZX       SIGV
  +6.02E+03  +7.03E+05  +1.59E+05  -2.558E+02  +1.225E+03  -6.826E+02  -9.893E+01  -5.801E+02  +9.762E+01  +2.019E+03
  +2.55E+04  +7.10E+05  +1.64E+05  -2.558E+02  +1.225E+03  -6.826E+02  -9.893E+01  -5.801E+02  +9.762E+01  +2.019E+03
  +6.02E+03  +7.13E+05  +1.81E+05  -2.558E+02  +1.225E+03  -6.826E+02  -9.893E+01  -5.801E+02  +9.762E+01  +2.019E+03
  +6.02E+03  +7.24E+05  +1.59E+05  -2.558E+02  +1.225E+03  -6.826E+02  -9.893E+01  -5.801E+02  +9.762E+01  +2.019E+03

element # = 1267     type =4-n tetrahedron
 XX         YY         ZZ         SIGXX       SIGYY       SIGZZ       TAUXY       TAUYZ       TAUZX       SIGV
  +1.30E+04  +7.06E+05  +1.17E+05  -1.604E+02  +1.065E+03  -2.799E+02  +3.653E+01  -9.769E+02  +4.806E+01  +2.130E+03
  +3.24E+04  +7.02E+05  +1.45E+05  -1.604E+02  +1.065E+03  -2.799E+02  +3.653E+01  -9.769E+02  +4.806E+01  +2.130E+03
  +3.54E+04  +6.90E+05  +1.22E+05  -1.604E+02  +1.065E+03  -2.799E+02  +3.653E+01  -9.769E+02  +4.806E+01  +2.130E+03
  +1.30E+04  +6.95E+05  +1.39E+05  -1.604E+02  +1.065E+03  -2.799E+02  +3.653E+01  -9.769E+02  +4.806E+01  +2.130E+03

element # = 1268     type =4-n tetrahedron
 XX         YY         ZZ         SIGXX       SIGYY       SIGZZ       TAUXY       TAUYZ       TAUZX       SIGV
  +1.03E+05  +4.16E+05  +7.76E+04  -1.503E+02  -1.980E+03  +7.946E+02  +5.172E+02  -1.402E+03  +8.309E+01  +3.562E+03
  +6.68E+04  +4.19E+05  +9.28E+04  -1.503E+02  -1.980E+03  +7.946E+02  +5.172E+02  -1.402E+03  +8.309E+01  +3.562E+03
  +7.43E+04  +4.48E+05  +7.64E+04  -1.503E+02  -1.980E+03  +7.946E+02  +5.172E+02  -1.402E+03  +8.309E+01  +3.562E+03
  +9.28E+04  +4.38E+05  +1.01E+05  -1.503E+02  -1.980E+03  +7.946E+02  +5.172E+02  -1.402E+03  +8.309E+01  +3.562E+03

element # = 1269     type =4-n tetrahedron
 XX         YY         ZZ         SIGXX       SIGYY       SIGZZ       TAUXY       TAUYZ       TAUZX       SIGV
  +4.29E+04  +1.70E+05  +1.28E+05  +4.878E+02  +1.394E+04  -7.983E+02  +1.172E+02  -2.182E+03  -9.308E+02  +1.472E+04
  +2.01E+04  +1.66E+05  +1.50E+05  +4.878E+02  +1.394E+04  -7.983E+02  +1.172E+02  -2.182E+03  -9.308E+02  +1.472E+04
  +3.82E+04  +1.76E+05  +1.54E+05  +4.878E+02  +1.394E+04  -7.983E+02  +1.172E+02  -2.182E+03  -9.308E+02  +1.472E+04
  +4.40E+04  +1.55E+05  +1.51E+05  +4.878E+02  +1.394E+04  -7.983E+02  +1.172E+02  -2.182E+03  -9.308E+02  +1.472E+04

element # = 1270     type =4-n tetrahedron
 XX         YY         ZZ         SIGXX       SIGYY       SIGZZ       TAUXY       TAUYZ       TAUZX       SIGV
  +5.90E+04  +6.97E+05  +1.65E+05  -8.278E+01  +1.861E+03  -6.771E+02  -1.597E+02  -6.051E+02  -9.724E+01  +2.547E+03
  +7.72E+04  +7.01E+05  +1.58E+05  -8.278E+01  +1.861E+03  -6.771E+02  -1.597E+02  -6.051E+02  -9.724E+01  +2.547E+03
  +6.59E+04  +6.75E+05  +1.63E+05  -8.278E+01  +1.861E+03  -6.771E+02  -1.597E+02  -6.051E+02  -9.724E+01  +2.547E+03
  +8.43E+04  +6.79E+05  +1.82E+05  -8.278E+01  +1.861E+03  -6.771E+02  -1.597E+02  -6.051E+02  -9.724E+01  +2.547E+03

element # = 1271     type =4-n tetrahedron
 XX         YY         ZZ         SIGXX       SIGYY       SIGZZ       TAUXY       TAUYZ       TAUZX       SIGV
  +8.05E+04  +4.46E+05  +1.08E+05  -2.255E+02  -4.097E+01  +9.402E+02  -4.650E+01  -6.370E+02  +5.250E+02  +1.797E+03
  +5.44E+04  +4.27E+05  +9.99E+04  -2.255E+02  -4.097E+01  +9.402E+02  -4.650E+01  -6.370E+02  +5.250E+02  +1.797E+03
  +6.20E+04  +4.55E+05  +8.34E+04  -2.255E+02  -4.097E+01  +9.402E+02  -4.650E+01  -6.370E+02  +5.250E+02  +1.797E+03
  +5.03E+04  +4.47E+05  +1.07E+05  -2.255E+02  -4.097E+01  +9.402E+02  -4.650E+01  -6.370E+02  +5.250E+02  +1.797E+03

element # = 1272     type =4-n tetrahedron
 XX         YY         ZZ         SIGXX       SIGYY       SIGZZ       TAUXY       TAUYZ       TAUZX       SIGV
  +9.48E+04  +5.37E+05  +6.29E+04  +1.281E+03  -1.469E+03  +1.638E+03  +2.935E+02  -1.278E+03  -2.744E+02  +3.749E+03
  +1.15E+05  +5.21E+05  +5.47E+04  +1.281E+03  -1.469E+03  +1.638E+03  +2.935E+02  -1.278E+03  -2.744E+02  +3.749E+03
  +9.81E+04  +5.26E+05  +2.63E+04  +1.281E+03  -1.469E+03  +1.638E+03  +2.935E+02  -1.278E+03  -2.744E+02  +3.749E+03
  +7.80E+04  +5.26E+05  +4.65E+04  +1.281E+03  -1.469E+03  +1.638E+03  +2.935E+02  -1.278E+03  -2.744E+02  +3.749E+03

element # = 1273     type =4-n tetrahedron
 XX         YY         ZZ         SIGXX       SIGYY       SIGZZ       TAUXY       TAUYZ       TAUZX       SIGV
  +3.55E+04  +1.77E+05  +1.23E+05  +5.490E+02  +9.555E+03  -1.100E+03  -3.730E+02  -2.965E+03  +2.121E+01  +1.120E+04
  +1.27E+04  +1.73E+05  +1.46E+05  +5.490E+02  +9.555E+03  -1.100E+03  -3.730E+02  -2.965E+03  +2.121E+01  +1.120E+04
  +1.27E+04  +1.86E+05  +1.30E+05  +5.490E+02  +9.555E+03  -1.100E+03  -3.730E+02  -2.965E+03  +2.121E+01  +1.120E+04
  +3.08E+04  +1.83E+05  +1.49E+05  +5.490E+02  +9.555E+03  -1.100E+03  -3.730E+02  -2.965E+03  +2.121E+01  +1.120E+04

element # = 1274     type =4-n tetrahedron
 XX         YY         ZZ         SIGXX       SIGYY       SIGZZ       TAUXY       TAUYZ       TAUZX       SIGV
  +6.31E+04  +2.34E+05  +1.59E+05  +3.027E+02  +9.266E+03  +1.077E+03  +1.598E+02  -1.642E+03  -1.075E+03  +9.253E+03
  +8.39E+04  +2.58E+05  +1.56E+05  +3.027E+02  +9.266E+03  +1.077E+03  +1.598E+02  -1.642E+03  -1.075E+03  +9.253E+03
  +8.42E+04  +2.22E+05  +1.55E+05  +3.027E+02  +9.266E+03  +1.077E+03  +1.598E+02  -1.642E+03  -1.075E+03  +9.253E+03
  +8.90E+04  +2.37E+05  +1.79E+05  +3.027E+02  +9.266E+03  +1.077E+03  +1.598E+02  -1.642E+03  -1.075E+03  +9.253E+03

element # = 1275     type =4-n tetrahedron
 XX         YY         ZZ         SIGXX       SIGYY       SIGZZ       TAUXY       TAUYZ       TAUZX       SIGV
  +1.14E+04  +5.84E+05  +1.02E+05  +1.174E+02  +3.350E+01  -6.864E+01  +1.085E+02  -1.252E+03  +3.451E+01  +2.183E+03
  +1.14E+04  +6.05E+05  +1.02E+05  +1.174E+02  +3.350E+01  -6.864E+01  +1.085E+02  -1.252E+03  +3.451E+01  +2.183E+03
  +3.08E+04  +5.84E+05  +9.63E+04  +1.174E+02  +3.350E+01  -6.864E+01  +1.085E+02  -1.252E+03  +3.451E+01  +2.183E+03
  +2.86E+04  +6.05E+05  +1.12E+05  +1.174E+02  +3.350E+01  -6.864E+01  +1.085E+02  -1.252E+03  +3.451E+01  +2.183E+03

element # = 1276     type =4-n tetrahedron
 XX         YY         ZZ         SIGXX       SIGYY       SIGZZ       TAUXY       TAUYZ       TAUZX       SIGV
  +1.14E+05  +6.09E+05  +1.94E+05  +5.419E+02  +5.046E+03  +3.288E+02  -1.560E+02  -3.617E+02  +8.991E+01  +4.667E+03
  +1.14E+05  +5.87E+05  +1.94E+05  +5.419E+02  +5.046E+03  +3.288E+02  -1.560E+02  -3.617E+02  +8.991E+01  +4.667E+03
  +1.36E+05  +5.98E+05  +1.94E+05  +5.419E+02  +5.046E+03  +3.288E+02  -1.560E+02  -3.617E+02  +8.991E+01  +4.667E+03
  +1.37E+05  +6.07E+05  +1.73E+05  +5.419E+02  +5.046E+03  +3.288E+02  -1.560E+02  -3.617E+02  +8.991E+01  +4.667E+03

element # = 1277     type =4-n tetrahedron
 XX         YY         ZZ         SIGXX       SIGYY       SIGZZ       TAUXY       TAUYZ       TAUZX       SIGV
  +4.52E+04  +5.29E+05  +6.89E+04  +8.650E+01  -5.446E+02  -3.016E+02  -3.021E+01  -1.981E+03  -3.596E+02  +3.531E+03
  +4.28E+04  +5.23E+05  +1.02E+05  +8.650E+01  -5.446E+02  -3.016E+02  -3.021E+01  -1.981E+03  -3.596E+02  +3.531E+03
  +2.05E+04  +5.28E+05  +9.35E+04  +8.650E+01  -5.446E+02  -3.016E+02  -3.021E+01  -1.981E+03  -3.596E+02  +3.531E+03
  +4.00E+04  +5.50E+05  +8.82E+04  +8.650E+01  -5.446E+02  -3.016E+02  -3.021E+01  -1.981E+03  -3.596E+02  +3.531E+03

element # = 1278     type =4-n tetrahedron
 XX         YY         ZZ         SIGXX       SIGYY       SIGZZ       TAUXY       TAUYZ       TAUZX       SIGV
  +2.99E+04  +1.76E+05  +1.04E+05  +6.819E+00  +8.948E+02  +4.119E+02  -1.461E+02  -1.426E+03  +1.291E+03  +3.428E+03
  +7.05E+03  +1.64E+05  +1.02E+05  +6.819E+00  +8.948E+02  +4.119E+02  -1.461E+02  -1.426E+03  +1.291E+03  +3.428E+03
  +7.05E+03  +1.87E+05  +9.30E+04  +6.819E+00  +8.948E+02  +4.119E+02  -1.461E+02  -1.426E+03  +1.291E+03  +3.428E+03
  +7.05E+03  +1.85E+05  +1.11E+05  +6.819E+00  +8.948E+02  +4.119E+02  -1.461E+02  -1.426E+03  +1.291E+03  +3.428E+03

element # = 1279     type =4-n tetrahedron
 XX         YY         ZZ         SIGXX       SIGYY       SIGZZ       TAUXY       TAUYZ       TAUZX       SIGV
  +6.99E+03  +2.91E+05  +4.54E+04  -4.280E+02  -1.040E+04  +1.132E+02  +4.109E+02  -2.332E+03  +1.039E+03  +1.119E+04
  +6.99E+03  +2.78E+05  +6.24E+04  -4.280E+02  -1.040E+04  +1.132E+02  +4.109E+02  -2.332E+03  +1.039E+03  +1.119E+04
  +2.96E+04  +2.76E+05  +4.90E+04  -4.280E+02  -1.040E+04  +1.132E+02  +4.109E+02  -2.332E+03  +1.039E+03  +1.119E+04
  +6.99E+03  +2.71E+05  +4.42E+04  -4.280E+02  -1.040E+04  +1.132E+02  +4.109E+02  -2.332E+03  +1.039E+03  +1.119E+04

element # = 1280     type =4-n tetrahedron
 XX         YY         ZZ         SIGXX       SIGYY       SIGZZ       TAUXY       TAUYZ       TAUZX       SIGV
  +1.25E+04  +2.08E+05  +1.71E+05  +6.544E+01  +1.569E+04  -1.153E+02  -2.578E+02  -1.017E+03  -1.054E+01  +1.582E+04
  +3.49E+04  +2.07E+05  +1.89E+05  +6.544E+01  +1.569E+04  -1.153E+02  -2.578E+02  -1.017E+03  -1.054E+01  +1.582E+04
  +3.07E+04  +1.95E+05  +1.73E+05  +6.544E+01  +1.569E+04  -1.153E+02  -2.578E+02  -1.017E+03  -1.054E+01  +1.582E+04
  +1.25E+04  +1.96E+05  +1.89E+05  +6.544E+01  +1.569E+04  -1.153E+02  -2.578E+02  -1.017E+03  -1.054E+01  +1.582E+04

element # = 1281     type =4-n tetrahedron
 XX         YY         ZZ         SIGXX       SIGYY       SIGZZ       TAUXY       TAUYZ       TAUZX       SIGV
  +2.23E+04  +2.35E+05  +4.41E+04  -7.647E+02  -1.193E+04  -6.208E+02  +4.900E+02  -2.106E+03  +6.342E+02  +1.190E+04
  +5.27E+03  +2.26E+05  +4.26E+04  -7.647E+02  -1.193E+04  -6.208E+02  +4.900E+02  -2.106E+03  +6.342E+02  +1.190E+04
  +5.27E+03  +2.47E+05  +4.21E+04  -7.647E+02  -1.193E+04  -6.208E+02  +4.900E+02  -2.106E+03  +6.342E+02  +1.190E+04
  +5.27E+03  +2.37E+05  +5.72E+04  -7.647E+02  -1.193E+04  -6.208E+02  +4.900E+02  -2.106E+03  +6.342E+02  +1.190E+04

element # = 1282     type =4-n tetrahedron
 XX         YY         ZZ         SIGXX       SIGYY       SIGZZ       TAUXY       TAUYZ       TAUZX       SIGV
  +1.48E+05  +7.50E+05  +1.20E+05  -9.064E+00  +8.878E+01  -4.542E+02  -3.947E+00  -7.814E+02  +5.441E+01  +1.446E+03
  +1.50E+05  +7.52E+05  +8.76E+04  -9.064E+00  +8.878E+01  -4.542E+02  -3.947E+00  -7.814E+02  +5.441E+01  +1.446E+03
  +1.80E+05  +7.33E+05  +1.01E+05  -9.064E+00  +8.878E+01  -4.542E+02  -3.947E+00  -7.814E+02  +5.441E+01  +1.446E+03
  +1.80E+05  +7.55E+05  +1.01E+05  -9.064E+00  +8.878E+01  -4.542E+02  -3.947E+00  -7.814E+02  +5.441E+01  +1.446E+03

element # = 1283     type =4-n tetrahedron
 XX         YY         ZZ         SIGXX       SIGYY       SIGZZ       TAUXY       TAUYZ       TAUZX       SIGV
  +2.38E+04  +1.24E+05  +3.72E+04  -2.640E+03  -2.228E+04  +9.376E+02  +4.788E+02  -1.435E+03  -9.612E+01  +2.181E+04
  +4.63E+04  +1.46E+05  +1.48E+04  -2.640E+03  -2.228E+04  +9.376E+02  +4.788E+02  -1.435E+03  -9.612E+01  +2.181E+04
  +4.64E+04  +1.23E+05  +1.48E+04  -2.640E+03  -2.228E+04  +9.376E+02  +4.788E+02  -1.435E+03  -9.612E+01  +2.181E+04
  +5.60E+04  +1.31E+05  +4.02E+04  -2.640E+03  -2.228E+04  +9.376E+02  +4.788E+02  -1.435E+03  -9.612E+01  +2.181E+04

element # = 1284     type =4-n tetrahedron
 XX         YY         ZZ         SIGXX       SIGYY       SIGZZ       TAUXY       TAUYZ       TAUZX       SIGV
  +5.27E+03  +2.37E+05  +1.60E+04  -6.249E+02  -1.174E+04  -2.916E+02  +4.160E+02  -1.315E+03  +6.934E+02  +1.160E+04
  +5.27E+03  +2.26E+05  +3.29E+04  -6.249E+02  -1.174E+04  -2.916E+02  +4.160E+02  -1.315E+03  +6.934E+02  +1.160E+04
  +5.27E+03  +2.47E+05  +3.24E+04  -6.249E+02  -1.174E+04  -2.916E+02  +4.160E+02  -1.315E+03  +6.934E+02  +1.160E+04
  +2.23E+04  +2.35E+05  +3.43E+04  -6.249E+02  -1.174E+04  -2.916E+02  +4.160E+02  -1.315E+03  +6.934E+02  +1.160E+04

element # = 1285     type =4-n tetrahedron
 XX         YY         ZZ         SIGXX       SIGYY       SIGZZ       TAUXY       TAUYZ       TAUZX       SIGV
  +6.92E+03  +2.72E+05  +5.07E+03  +2.093E+01  -1.708E+04  +5.494E+02  +5.363E+02  -1.375E+03  +6.382E+02  +1.759E+04
  +6.92E+03  +2.51E+05  +5.07E+03  +2.093E+01  -1.708E+04  +5.494E+02  +5.363E+02  -1.375E+03  +6.382E+02  +1.759E+04
  +6.92E+03  +2.61E+05  +2.15E+04  +2.093E+01  -1.708E+04  +5.494E+02  +5.363E+02  -1.375E+03  +6.382E+02  +1.759E+04
  +2.93E+04  +2.61E+05  +5.07E+03  +2.093E+01  -1.708E+04  +5.494E+02  +5.363E+02  -1.375E+03  +6.382E+02  +1.759E+04

element # = 1286     type =4-n tetrahedron
 XX         YY         ZZ         SIGXX       SIGYY       SIGZZ       TAUXY       TAUYZ       TAUZX       SIGV
  +1.25E+04  +6.06E+05  +8.30E+04  +5.599E+02  -7.817E+02  +8.831E+00  -8.399E+01  -1.438E+03  -5.252E+01  +2.756E+03
  +3.34E+04  +5.95E+05  +5.57E+04  +5.599E+02  -7.817E+02  +8.831E+00  -8.399E+01  -1.438E+03  -5.252E+01  +2.756E+03
  +1.25E+04  +5.95E+05  +6.07E+04  +5.599E+02  -7.817E+02  +8.831E+00  -8.399E+01  -1.438E+03  -5.252E+01  +2.756E+03
  +3.19E+04  +5.85E+05  +7.78E+04  +5.599E+02  -7.817E+02  +8.831E+00  -8.399E+01  -1.438E+03  -5.252E+01  +2.756E+03

element # = 1287     type =4-n tetrahedron
 XX         YY         ZZ         SIGXX       SIGYY       SIGZZ       TAUXY       TAUYZ       TAUZX       SIGV
  +1.39E+04  +2.77E+05  +1.16E+04  -6.151E+02  -1.440E+04  +1.647E+02  +5.797E+01  -1.143E+03  -3.517E+02  +1.434E+04
  +3.63E+04  +2.66E+05  +1.16E+04  -6.151E+02  -1.440E+04  +1.647E+02  +5.797E+01  -1.143E+03  -3.517E+02  +1.434E+04
  +1.39E+04  +2.66E+05  +2.80E+04  -6.151E+02  -1.440E+04  +1.647E+02  +5.797E+01  -1.143E+03  -3.517E+02  +1.434E+04
  +3.65E+04  +2.71E+05  +3.28E+04  -6.151E+02  -1.440E+04  +1.647E+02  +5.797E+01  -1.143E+03  -3.517E+02  +1.434E+04

element # = 1288     type =4-n tetrahedron
 XX         YY         ZZ         SIGXX       SIGYY       SIGZZ       TAUXY       TAUYZ       TAUZX       SIGV
  +1.28E+04  +5.31E+05  +1.16E+05  +5.349E+02  +2.494E+03  -1.039E+01  -1.679E+02  -1.685E+03  +1.537E+02  +3.726E+03
  +3.20E+04  +5.52E+05  +1.36E+05  +5.349E+02  +2.494E+03  -1.039E+01  -1.679E+02  -1.685E+03  +1.537E+02  +3.726E+03
  +3.52E+04  +5.26E+05  +1.24E+05  +5.349E+02  +2.494E+03  -1.039E+01  -1.679E+02  -1.685E+03  +1.537E+02  +3.726E+03
  +1.28E+04  +5.42E+05  +1.38E+05  +5.349E+02  +2.494E+03  -1.039E+01  -1.679E+02  -1.685E+03  +1.537E+02  +3.726E+03

element # = 1289     type =4-n tetrahedron
 XX         YY         ZZ         SIGXX       SIGYY       SIGZZ       TAUXY       TAUYZ       TAUZX       SIGV
  +1.45E+04  +5.06E+05  +3.57E+04  -1.609E+02  -6.382E+03  -1.117E+02  +4.135E+01  -9.701E+02  -1.965E+02  +6.477E+03
  +3.69E+04  +5.07E+05  +1.32E+04  -1.609E+02  -6.382E+03  -1.117E+02  +4.135E+01  -9.701E+02  -1.965E+02  +6.477E+03
  +3.92E+04  +5.18E+05  +3.34E+04  -1.609E+02  -6.382E+03  -1.117E+02  +4.135E+01  -9.701E+02  -1.965E+02  +6.477E+03
  +1.45E+04  +5.17E+05  +1.32E+04  -1.609E+02  -6.382E+03  -1.117E+02  +4.135E+01  -9.701E+02  -1.965E+02  +6.477E+03

element # = 1290     type =4-n tetrahedron
 XX         YY         ZZ         SIGXX       SIGYY       SIGZZ       TAUXY       TAUYZ       TAUZX       SIGV
  +2.24E+04  +4.88E+05  +3.82E+04  -7.818E+02  -7.774E+03  -1.034E+02  -3.110E+02  -1.156E+03  -4.396E+01  +7.642E+03
  +4.48E+04  +4.68E+05  +1.57E+04  -7.818E+02  -7.774E+03  -1.034E+02  -3.110E+02  -1.156E+03  -4.396E+01  +7.642E+03
  +5.02E+04  +4.75E+05  +4.41E+04  -7.818E+02  -7.774E+03  -1.034E+02  -3.110E+02  -1.156E+03  -4.396E+01  +7.642E+03
  +4.48E+04  +4.89E+05  +1.57E+04  -7.818E+02  -7.774E+03  -1.034E+02  -3.110E+02  -1.156E+03  -4.396E+01  +7.642E+03

element # = 1291     type =4-n tetrahedron
 XX         YY         ZZ         SIGXX       SIGYY       SIGZZ       TAUXY       TAUYZ       TAUZX       SIGV
  +4.23E+04  +6.15E+05  +4.48E+04  +1.211E+02  -2.409E+03  +9.558E+02  +1.830E+00  -9.102E+02  -2.435E+02  +3.446E+03
  +5.22E+04  +6.31E+05  +5.83E+04  +1.211E+02  -2.409E+03  +9.558E+02  +1.830E+00  -9.102E+02  -2.435E+02  +3.446E+03
  +2.14E+04  +6.37E+05  +4.98E+04  +1.211E+02  -2.409E+03  +9.558E+02  +1.830E+00  -9.102E+02  -2.435E+02  +3.446E+03
  +3.89E+04  +6.44E+05  +4.55E+04  +1.211E+02  -2.409E+03  +9.558E+02  +1.830E+00  -9.102E+02  -2.435E+02  +3.446E+03

element # = 1292     type =4-n tetrahedron
 XX         YY         ZZ         SIGXX       SIGYY       SIGZZ       TAUXY       TAUYZ       TAUZX       SIGV
  +8.59E+03  +5.05E+05  +8.83E+04  +5.062E+02  -3.511E+02  +3.730E+01  +2.992E+02  -1.600E+03  +2.343E+02  +2.944E+03
  +3.64E+04  +4.81E+05  +7.18E+04  +5.062E+02  -3.511E+02  +3.730E+01  +2.992E+02  -1.600E+03  +2.343E+02  +2.944E+03
  +8.59E+03  +4.94E+05  +6.60E+04  +5.062E+02  -3.511E+02  +3.730E+01  +2.992E+02  -1.600E+03  +2.343E+02  +2.944E+03
  +8.59E+03  +4.83E+05  +8.85E+04  +5.062E+02  -3.511E+02  +3.730E+01  +2.992E+02  -1.600E+03  +2.343E+02  +2.944E+03

element # = 1293     type =4-n tetrahedron
 XX         YY         ZZ         SIGXX       SIGYY       SIGZZ       TAUXY       TAUYZ       TAUZX       SIGV
  +1.56E+05  +4.36E+05  +6.16E+04  -4.718E+02  -5.113E+03  -4.692E+02  +6.245E+01  -2.197E+03  -4.706E+02  +6.059E+03
  +1.82E+05  +4.14E+05  +5.97E+04  -4.718E+02  -5.113E+03  -4.692E+02  +6.245E+01  -2.197E+03  -4.706E+02  +6.059E+03
  +1.48E+05  +4.11E+05  +6.69E+04  -4.718E+02  -5.113E+03  -4.692E+02  +6.245E+01  -2.197E+03  -4.706E+02  +6.059E+03
  +1.82E+05  +4.25E+05  +8.21E+04  -4.718E+02  -5.113E+03  -4.692E+02  +6.245E+01  -2.197E+03  -4.706E+02  +6.059E+03

element # = 1294     type =4-n tetrahedron
 XX         YY         ZZ         SIGXX       SIGYY       SIGZZ       TAUXY       TAUYZ       TAUZX       SIGV
  +1.62E+05  +2.54E+05  +2.18E+04  -3.979E+02  -9.277E+03  +1.951E+03  -3.240E+01  +4.955E+01  -5.051E+02  +1.030E+04
  +1.85E+05  +2.33E+05  +4.42E+04  -3.979E+02  -9.277E+03  +1.951E+03  -3.240E+01  +4.955E+01  -5.051E+02  +1.030E+04
  +1.57E+05  +2.54E+05  +4.74E+04  -3.979E+02  -9.277E+03  +1.951E+03  -3.240E+01  +4.955E+01  -5.051E+02  +1.030E+04
  +1.85E+05  +2.54E+05  +4.42E+04  -3.979E+02  -9.277E+03  +1.951E+03  -3.240E+01  +4.955E+01  -5.051E+02  +1.030E+04

element # = 1295     type =4-n tetrahedron
 XX         YY         ZZ         SIGXX       SIGYY       SIGZZ       TAUXY       TAUYZ       TAUZX       SIGV
  +7.62E+03  +5.23E+05  +7.88E+04  -3.655E+01  -3.670E+03  -3.061E+02  +7.984E+01  -1.701E+03  +3.159E+02  +4.614E+03
  +3.23E+04  +5.24E+05  +5.42E+04  -3.655E+01  -3.670E+03  -3.061E+02  +7.984E+01  -1.701E+03  +3.159E+02  +4.614E+03
  +7.62E+03  +5.34E+05  +5.64E+04  -3.655E+01  -3.670E+03  -3.061E+02  +7.984E+01  -1.701E+03  +3.159E+02  +4.614E+03
  +7.62E+03  +5.12E+05  +5.65E+04  -3.655E+01  -3.670E+03  -3.061E+02  +7.984E+01  -1.701E+03  +3.159E+02  +4.614E+03

element # = 1296     type =4-n tetrahedron
 XX         YY         ZZ         SIGXX       SIGYY       SIGZZ       TAUXY       TAUYZ       TAUZX       SIGV
  +1.56E+05  +4.01E+05  +7.32E+04  +1.663E+03  +9.344E+02  +9.691E+02  -3.563E+01  -2.288E+03  -7.303E+02  +4.221E+03
  +1.90E+05  +4.04E+05  +6.60E+04  +1.663E+03  +9.344E+02  +9.691E+02  -3.563E+01  -2.288E+03  -7.303E+02  +4.221E+03
  +1.90E+05  +3.93E+05  +8.84E+04  +1.663E+03  +9.344E+02  +9.691E+02  -3.563E+01  -2.288E+03  -7.303E+02  +4.221E+03
  +1.90E+05  +4.15E+05  +8.84E+04  +1.663E+03  +9.344E+02  +9.691E+02  -3.563E+01  -2.288E+03  -7.303E+02  +4.221E+03

element # = 1297     type =4-n tetrahedron
 XX         YY         ZZ         SIGXX       SIGYY       SIGZZ       TAUXY       TAUYZ       TAUZX       SIGV
  +8.96E+04  +5.30E+05  +7.17E+04  -4.883E+02  -2.929E+03  -1.664E+03  -5.000E+01  -4.374E+02  +4.126E+02  +2.358E+03
  +1.10E+05  +5.14E+05  +6.35E+04  -4.883E+02  -2.929E+03  -1.664E+03  -5.000E+01  -4.374E+02  +4.126E+02  +2.358E+03
  +7.28E+04  +5.19E+05  +5.53E+04  -4.883E+02  -2.929E+03  -1.664E+03  -5.000E+01  -4.374E+02  +4.126E+02  +2.358E+03
  +7.59E+04  +4.94E+05  +6.34E+04  -4.883E+02  -2.929E+03  -1.664E+03  -5.000E+01  -4.374E+02  +4.126E+02  +2.358E+03

element # = 1298     type =4-n tetrahedron
 XX         YY         ZZ         SIGXX       SIGYY       SIGZZ       TAUXY       TAUYZ       TAUZX       SIGV
  +7.59E+04  +8.04E+05  +8.93E+04  -1.214E+02  -1.393E+02  -3.958E+02  +5.206E+01  -5.370E+02  +2.661E+01  +9.726E+02
  +6.13E+04  +8.19E+05  +9.92E+04  -1.214E+02  -1.393E+02  -3.958E+02  +5.206E+01  -5.370E+02  +2.661E+01  +9.726E+02
  +9.96E+04  +8.20E+05  +1.18E+05  -1.214E+02  -1.393E+02  -3.958E+02  +5.206E+01  -5.370E+02  +2.661E+01  +9.726E+02
  +7.10E+04  +8.11E+05  +1.27E+05  -1.214E+02  -1.393E+02  -3.958E+02  +5.206E+01  -5.370E+02  +2.661E+01  +9.726E+02

element # = 1299     type =4-n tetrahedron
 XX         YY         ZZ         SIGXX       SIGYY       SIGZZ       TAUXY       TAUYZ       TAUZX       SIGV
  +7.76E+04  +9.93E+05  +1.10E+05  -3.179E+01  +2.534E+01  -3.674E+02  -5.156E+00  -7.472E+01  -9.050E+00  +3.900E+02
  +5.25E+04  +9.72E+05  +1.22E+05  -3.179E+01  +2.534E+01  -3.674E+02  -5.156E+00  -7.472E+01  -9.050E+00  +3.900E+02
  +5.20E+04  +9.93E+05  +1.10E+05  -3.179E+01  +2.534E+01  -3.674E+02  -5.156E+00  -7.472E+01  -9.050E+00  +3.900E+02
  +5.60E+04  +9.93E+05  +1.32E+05  -3.179E+01  +2.534E+01  -3.674E+02  -5.156E+00  -7.472E+01  -9.050E+00  +3.900E+02

element # = 1300     type =4-n tetrahedron
 XX         YY         ZZ         SIGXX       SIGYY       SIGZZ       TAUXY       TAUYZ       TAUZX       SIGV
  +6.24E+03  +7.95E+05  +1.10E+05  -2.363E+01  -2.337E+01  -3.982E+02  +2.612E+01  -7.381E+02  +3.813E+01  +1.335E+03
  +6.24E+03  +7.84E+05  +1.33E+05  -2.363E+01  -2.337E+01  -3.982E+02  +2.612E+01  -7.381E+02  +3.813E+01  +1.335E+03
  +2.64E+04  +7.73E+05  +1.21E+05  -2.363E+01  -2.337E+01  -3.982E+02  +2.612E+01  -7.381E+02  +3.813E+01  +1.335E+03
  +6.24E+03  +7.73E+05  +1.10E+05  -2.363E+01  -2.337E+01  -3.982E+02  +2.612E+01  -7.381E+02  +3.813E+01  +1.335E+03

element # = 1301     type =4-n tetrahedron
 XX         YY         ZZ         SIGXX       SIGYY       SIGZZ       TAUXY       TAUYZ       TAUZX       SIGV
  +1.50E+04  +8.01E+05  +1.17E+05  -6.706E+01  +2.693E+02  -2.961E+02  +3.707E+01  -6.641E+02  +1.735E+01  +1.253E+03
  +4.35E+04  +8.00E+05  +1.39E+05  -6.706E+01  +2.693E+02  -2.961E+02  +3.707E+01  -6.641E+02  +1.735E+01  +1.253E+03
  +3.52E+04  +7.79E+05  +1.28E+05  -6.706E+01  +2.693E+02  -2.961E+02  +3.707E+01  -6.641E+02  +1.735E+01  +1.253E+03
  +1.50E+04  +7.90E+05  +1.39E+05  -6.706E+01  +2.693E+02  -2.961E+02  +3.707E+01  -6.641E+02  +1.735E+01  +1.253E+03

element # = 1302     type =4-n tetrahedron
 XX         YY         ZZ         SIGXX       SIGYY       SIGZZ       TAUXY       TAUYZ       TAUZX       SIGV
  +1.86E+05  +7.01E+05  +2.93E+04  -1.615E+02  -2.393E+03  -1.062E+02  -9.094E+01  -4.337E+02  +4.351E+01  +2.387E+03
  +1.64E+05  +7.01E+05  +6.91E+03  -1.615E+02  -2.393E+03  -1.062E+02  -9.094E+01  -4.337E+02  +4.351E+01  +2.387E+03
  +1.86E+05  +7.11E+05  +6.91E+03  -1.615E+02  -2.393E+03  -1.062E+02  -9.094E+01  -4.337E+02  +4.351E+01  +2.387E+03
  +1.64E+05  +7.22E+05  +6.91E+03  -1.615E+02  -2.393E+03  -1.062E+02  -9.094E+01  -4.337E+02  +4.351E+01  +2.387E+03

element # = 1303     type =4-n tetrahedron
 XX         YY         ZZ         SIGXX       SIGYY       SIGZZ       TAUXY       TAUYZ       TAUZX       SIGV
  +6.99E+04  +7.57E+05  +1.13E+05  -1.298E+02  -3.096E+01  -5.242E+02  +1.063E+02  -6.663E+02  -7.084E+01  +1.259E+03
  +1.07E+05  +7.52E+05  +1.21E+05  -1.298E+02  -3.096E+01  -5.242E+02  +1.063E+02  -6.663E+02  -7.084E+01  +1.259E+03
  +1.09E+05  +7.55E+05  +8.86E+04  -1.298E+02  -3.096E+01  -5.242E+02  +1.063E+02  -6.663E+02  -7.084E+01  +1.259E+03
  +7.50E+04  +7.44E+05  +9.50E+04  -1.298E+02  -3.096E+01  -5.242E+02  +1.063E+02  -6.663E+02  -7.084E+01  +1.259E+03

element # = 1304     type =4-n tetrahedron
 XX         YY         ZZ         SIGXX       SIGYY       SIGZZ       TAUXY       TAUYZ       TAUZX       SIGV
  +7.79E+03  +7.70E+05  +6.16E+04  -8.394E+01  -1.077E+03  -4.092E+02  -6.460E+00  -8.051E+02  +1.328E+01  +1.647E+03
  +7.79E+03  +7.59E+05  +8.39E+04  -8.394E+01  -1.077E+03  -4.092E+02  -6.460E+00  -8.051E+02  +1.328E+01  +1.647E+03
  +3.30E+04  +7.46E+05  +7.64E+04  -8.394E+01  -1.077E+03  -4.092E+02  -6.460E+00  -8.051E+02  +1.328E+01  +1.647E+03
  +7.79E+03  +7.48E+05  +6.16E+04  -8.394E+01  -1.077E+03  -4.092E+02  -6.460E+00  -8.051E+02  +1.328E+01  +1.647E+03

element # = 1305     type =4-n tetrahedron
 XX         YY         ZZ         SIGXX       SIGYY       SIGZZ       TAUXY       TAUYZ       TAUZX       SIGV
  +1.25E+05  +4.39E+05  +9.94E+04  -1.272E+03  -4.173E+03  +2.399E+01  -2.273E+02  -1.148E+03  +1.920E+02  +4.251E+03
  +1.42E+05  +4.42E+05  +7.09E+04  -1.272E+03  -4.173E+03  +2.399E+01  -2.273E+02  -1.148E+03  +1.920E+02  +4.251E+03
  +1.35E+05  +4.17E+05  +7.62E+04  -1.272E+03  -4.173E+03  +2.399E+01  -2.273E+02  -1.148E+03  +1.920E+02  +4.251E+03
  +1.68E+05  +4.31E+05  +9.14E+04  -1.272E+03  -4.173E+03  +2.399E+01  -2.273E+02  -1.148E+03  +1.920E+02  +4.251E+03

element # = 1306     type =4-n tetrahedron
 XX         YY         ZZ         SIGXX       SIGYY       SIGZZ       TAUXY       TAUYZ       TAUZX       SIGV
  +1.12E+05  +4.14E+05  +1.93E+05  +5.458E+02  +1.188E+04  +7.448E+02  -1.670E+02  -1.468E+03  +4.450E+01  +1.152E+04
  +1.12E+05  +3.93E+05  +1.93E+05  +5.458E+02  +1.188E+04  +7.448E+02  -1.670E+02  -1.468E+03  +4.450E+01  +1.152E+04
  +1.35E+05  +4.03E+05  +1.93E+05  +5.458E+02  +1.188E+04  +7.448E+02  -1.670E+02  -1.468E+03  +4.450E+01  +1.152E+04
  +1.30E+05  +3.99E+05  +1.69E+05  +5.458E+02  +1.188E+04  +7.448E+02  -1.670E+02  -1.468E+03  +4.450E+01  +1.152E+04

element # = 1307     type =4-n tetrahedron
 XX         YY         ZZ         SIGXX       SIGYY       SIGZZ       TAUXY       TAUYZ       TAUZX       SIGV
  +1.41E+04  +8.22E+05  +5.17E+03  +7.909E+00  -8.042E+02  -6.602E+01  +4.599E+01  -2.513E+02  -6.120E+00  +8.949E+02
  +1.41E+04  +8.43E+05  +5.17E+03  +7.909E+00  -8.042E+02  -6.602E+01  +4.599E+01  -2.513E+02  -6.120E+00  +8.949E+02
  +3.65E+04  +8.34E+05  +5.17E+03  +7.909E+00  -8.042E+02  -6.602E+01  +4.599E+01  -2.513E+02  -6.120E+00  +8.949E+02
  +3.72E+04  +8.30E+05  +2.19E+04  +7.909E+00  -8.042E+02  -6.602E+01  +4.599E+01  -2.513E+02  -6.120E+00  +8.949E+02

element # = 1308     type =4-n tetrahedron
 XX         YY         ZZ         SIGXX       SIGYY       SIGZZ       TAUXY       TAUYZ       TAUZX       SIGV
  +1.01E+05  +7.73E+05  +1.86E+04  -1.609E+02  -1.377E+03  -8.227E+01  -1.372E+02  -4.028E+02  +1.032E+02  +1.468E+03
  +1.01E+05  +7.95E+05  +1.86E+04  -1.609E+02  -1.377E+03  -8.227E+01  -1.372E+02  -4.028E+02  +1.032E+02  +1.468E+03
  +1.15E+05  +7.71E+05  +4.95E+04  -1.609E+02  -1.377E+03  -8.227E+01  -1.372E+02  -4.028E+02  +1.032E+02  +1.468E+03
  +8.95E+04  +7.87E+05  +4.80E+04  -1.609E+02  -1.377E+03  -8.227E+01  -1.372E+02  -4.028E+02  +1.032E+02  +1.468E+03

element # = 1309     type =4-n tetrahedron
 XX         YY         ZZ         SIGXX       SIGYY       SIGZZ       TAUXY       TAUYZ       TAUZX       SIGV
  +3.82E+04  +1.48E+05  +1.69E+05  +5.377E+02  +1.873E+04  -3.070E+02  -3.099E+02  -1.609E+03  +1.128E+02  +1.885E+04
  +3.68E+04  +1.58E+05  +1.88E+05  +5.377E+02  +1.873E+04  -3.070E+02  -3.099E+02  -1.609E+03  +1.128E+02  +1.885E+04
  +1.43E+04  +1.49E+05  +1.88E+05  +5.377E+02  +1.873E+04  -3.070E+02  -3.099E+02  -1.609E+03  +1.128E+02  +1.885E+04
  +1.43E+04  +1.59E+05  +1.68E+05  +5.377E+02  +1.873E+04  -3.070E+02  -3.099E+02  -1.609E+03  +1.128E+02  +1.885E+04

element # = 1310     type =4-n tetrahedron
 XX         YY         ZZ         SIGXX       SIGYY       SIGZZ       TAUXY       TAUYZ       TAUZX       SIGV
  +2.94E+04  +9.53E+05  +1.69E+05  +3.014E+01  +1.616E+02  -4.080E+02  -2.505E+01  -1.254E+02  +8.565E+00  +5.623E+02
  +1.03E+04  +9.44E+05  +1.60E+05  +3.014E+01  +1.616E+02  -4.080E+02  -2.505E+01  -1.254E+02  +8.565E+00  +5.623E+02
  +1.03E+04  +9.48E+05  +1.83E+05  +3.014E+01  +1.616E+02  -4.080E+02  -2.505E+01  -1.254E+02  +8.565E+00  +5.623E+02
  +2.45E+04  +9.32E+05  +1.66E+05  +3.014E+01  +1.616E+02  -4.080E+02  -2.505E+01  -1.254E+02  +8.565E+00  +5.623E+02

element # = 1311     type =4-n tetrahedron
 XX         YY         ZZ         SIGXX       SIGYY       SIGZZ       TAUXY       TAUYZ       TAUZX       SIGV
  +5.81E+03  +2.38E+05  +1.32E+05  -2.963E+02  +9.525E+03  -8.089E+02  -1.726E+02  -2.803E+03  +5.795E+02  +1.124E+04
  +2.46E+04  +2.33E+05  +1.50E+05  -2.963E+02  +9.525E+03  -8.089E+02  -1.726E+02  -2.803E+03  +5.795E+02  +1.124E+04
  +5.81E+03  +2.27E+05  +1.52E+05  -2.963E+02  +9.525E+03  -8.089E+02  -1.726E+02  -2.803E+03  +5.795E+02  +1.124E+04
  +5.81E+03  +2.49E+05  +1.52E+05  -2.963E+02  +9.525E+03  -8.089E+02  -1.726E+02  -2.803E+03  +5.795E+02  +1.124E+04

element # = 1312     type =4-n tetrahedron
 XX         YY         ZZ         SIGXX       SIGYY       SIGZZ       TAUXY       TAUYZ       TAUZX       SIGV
  +3.51E+04  +9.36E+05  +1.95E+05  +4.833E+00  +1.720E+02  -4.583E+02  -1.060E+01  -1.011E+02  +9.408E+00  +5.925E+02
  +1.16E+04  +9.40E+05  +1.95E+05  +4.833E+00  +1.720E+02  -4.583E+02  -1.060E+01  -1.011E+02  +9.408E+00  +5.925E+02
  +1.16E+04  +9.19E+05  +1.95E+05  +4.833E+00  +1.720E+02  -4.583E+02  -1.060E+01  -1.011E+02  +9.408E+00  +5.925E+02
  +2.59E+04  +9.24E+05  +1.78E+05  +4.833E+00  +1.720E+02  -4.583E+02  -1.060E+01  -1.011E+02  +9.408E+00  +5.925E+02

element # = 1313     type =4-n tetrahedron
 XX         YY         ZZ         SIGXX       SIGYY       SIGZZ       TAUXY       TAUYZ       TAUZX       SIGV
  +7.67E+04  +9.88E+05  +1.00E+05  -1.492E+00  +2.302E-01  -2.413E+02  -1.519E+00  -1.006E+02  -2.277E+00  +2.971E+02
  +5.16E+04  +9.66E+05  +1.12E+05  -1.492E+00  +2.302E-01  -2.413E+02  -1.519E+00  -1.006E+02  -2.277E+00  +2.971E+02
  +5.22E+04  +9.69E+05  +9.02E+04  -1.492E+00  +2.302E-01  -2.413E+02  -1.519E+00  -1.006E+02  -2.277E+00  +2.971E+02
  +5.11E+04  +9.88E+05  +1.00E+05  -1.492E+00  +2.302E-01  -2.413E+02  -1.519E+00  -1.006E+02  -2.277E+00  +2.971E+02

element # = 1314     type =4-n tetrahedron
 XX         YY         ZZ         SIGXX       SIGYY       SIGZZ       TAUXY       TAUYZ       TAUZX       SIGV
  +1.86E+05  +4.14E+05  +1.64E+05  +2.963E+02  +8.516E+03  +7.226E+01  +4.807E+02  -1.051E+03  -2.769E+02  +8.585E+03
  +1.64E+05  +4.32E+05  +1.65E+05  +2.963E+02  +8.516E+03  +7.226E+01  +4.807E+02  -1.051E+03  -2.769E+02  +8.585E+03
  +1.86E+05  +4.24E+05  +1.87E+05  +2.963E+02  +8.516E+03  +7.226E+01  +4.807E+02  -1.051E+03  -2.769E+02  +8.585E+03
  +1.64E+05  +4.14E+05  +1.87E+05  +2.963E+02  +8.516E+03  +7.226E+01  +4.807E+02  -1.051E+03  -2.769E+02  +8.585E+03

element # = 1315     type =4-n tetrahedron
 XX         YY         ZZ         SIGXX       SIGYY       SIGZZ       TAUXY       TAUYZ       TAUZX       SIGV
  +1.79E+05  +4.63E+05  +9.61E+04  +5.260E+02  +6.614E+02  +1.405E+03  +4.037E+01  -1.809E+03  -8.197E+01  +3.243E+03
  +1.36E+05  +4.50E+05  +1.04E+05  +5.260E+02  +6.614E+02  +1.405E+03  +4.037E+01  -1.809E+03  -8.197E+01  +3.243E+03
  +1.79E+05  +4.41E+05  +9.61E+04  +5.260E+02  +6.614E+02  +1.405E+03  +4.037E+01  -1.809E+03  -8.197E+01  +3.243E+03
  +1.53E+05  +4.52E+05  +7.56E+04  +5.260E+02  +6.614E+02  +1.405E+03  +4.037E+01  -1.809E+03  -8.197E+01  +3.243E+03

element # = 1316     type =4-n tetrahedron
 XX         YY         ZZ         SIGXX       SIGYY       SIGZZ       TAUXY       TAUYZ       TAUZX       SIGV
  +6.01E+03  +5.81E+05  +9.15E+04  +2.629E+02  +1.165E+02  +6.525E+01  +3.654E+01  -1.517E+03  +1.551E+02  +2.648E+03
  +6.01E+03  +6.02E+05  +9.15E+04  +2.629E+02  +1.165E+02  +6.525E+01  +3.654E+01  -1.517E+03  +1.551E+02  +2.648E+03
  +6.01E+03  +5.92E+05  +6.92E+04  +2.629E+02  +1.165E+02  +6.525E+01  +3.654E+01  -1.517E+03  +1.551E+02  +2.648E+03
  +2.55E+04  +5.81E+05  +8.62E+04  +2.629E+02  +1.165E+02  +6.525E+01  +3.654E+01  -1.517E+03  +1.551E+02  +2.648E+03

element # = 1317     type =4-n tetrahedron
 XX         YY         ZZ         SIGXX       SIGYY       SIGZZ       TAUXY       TAUYZ       TAUZX       SIGV
  +4.22E+04  +2.85E+05  +6.04E+04  -2.451E+03  -9.619E+03  -2.026E+03  +9.128E+02  -1.615E+03  -4.105E+02  +8.089E+03
  +3.84E+04  +3.00E+05  +8.88E+04  -2.451E+03  -9.619E+03  -2.026E+03  +9.128E+02  -1.615E+03  -4.105E+02  +8.089E+03
  +1.96E+04  +2.87E+05  +7.38E+04  -2.451E+03  -9.619E+03  -2.026E+03  +9.128E+02  -1.615E+03  -4.105E+02  +8.089E+03
  +4.17E+04  +3.06E+05  +6.03E+04  -2.451E+03  -9.619E+03  -2.026E+03  +9.128E+02  -1.615E+03  -4.105E+02  +8.089E+03

element # = 1318     type =4-n tetrahedron
 XX         YY         ZZ         SIGXX       SIGYY       SIGZZ       TAUXY       TAUYZ       TAUZX       SIGV
  +2.99E+04  +1.73E+05  +9.36E+04  -5.192E+02  -1.287E+03  +1.097E+03  +5.903E+02  -3.421E+03  +1.203E+03  +6.703E+03
  +7.05E+03  +1.69E+05  +6.62E+04  -5.192E+02  -1.287E+03  +1.097E+03  +5.903E+02  -3.421E+03  +1.203E+03  +6.703E+03
  +7.05E+03  +1.83E+05  +8.23E+04  -5.192E+02  -1.287E+03  +1.097E+03  +5.903E+02  -3.421E+03  +1.203E+03  +6.703E+03
  +7.05E+03  +1.61E+05  +9.10E+04  -5.192E+02  -1.287E+03  +1.097E+03  +5.903E+02  -3.421E+03  +1.203E+03  +6.703E+03

element # = 1319     type =4-n tetrahedron
 XX         YY         ZZ         SIGXX       SIGYY       SIGZZ       TAUXY       TAUYZ       TAUZX       SIGV
  +6.11E+03  +2.02E+05  +4.61E+04  -1.000E+02  -1.119E+04  +4.581E+02  -2.429E+01  -1.125E+03  +1.405E+03  +1.180E+04
  +2.59E+04  +1.91E+05  +4.99E+04  -1.000E+02  -1.119E+04  +4.581E+02  -2.429E+01  -1.125E+03  +1.405E+03  +1.180E+04
  +6.11E+03  +1.81E+05  +4.93E+04  -1.000E+02  -1.119E+04  +4.581E+02  -2.429E+01  -1.125E+03  +1.405E+03  +1.180E+04
  +6.11E+03  +1.94E+05  +6.54E+04  -1.000E+02  -1.119E+04  +4.581E+02  -2.429E+01  -1.125E+03  +1.405E+03  +1.180E+04

element # = 1320     type =4-n tetrahedron
 XX         YY         ZZ         SIGXX       SIGYY       SIGZZ       TAUXY       TAUYZ       TAUZX       SIGV
  +1.30E+05  +5.89E+05  +3.07E+04  -1.391E+02  -6.144E+03  -3.054E+02  +2.471E+01  -7.779E+02  -9.349E+00  +6.075E+03
  +1.35E+05  +5.94E+05  +7.24E+03  -1.391E+02  -6.144E+03  -3.054E+02  +2.471E+01  -7.779E+02  -9.349E+00  +6.075E+03
  +1.12E+05  +6.05E+05  +7.24E+03  -1.391E+02  -6.144E+03  -3.054E+02  +2.471E+01  -7.779E+02  -9.349E+00  +6.075E+03
  +1.12E+05  +5.83E+05  +7.24E+03  -1.391E+02  -6.144E+03  -3.054E+02  +2.471E+01  -7.779E+02  -9.349E+00  +6.075E+03

element # = 1321     type =4-n tetrahedron
 XX         YY         ZZ         SIGXX       SIGYY       SIGZZ       TAUXY       TAUYZ       TAUZX       SIGV
  +9.29E+04  +1.14E+05  +7.47E+04  +1.476E+03  -7.356E-01  -1.934E+03  +2.055E+03  -1.327E+03  +9.680E+02  +5.435E+03
  +1.25E+05  +9.53E+04  +7.69E+04  +1.476E+03  -7.356E-01  -1.934E+03  +2.055E+03  -1.327E+03  +9.680E+02  +5.435E+03
  +1.05E+05  +7.64E+04  +9.40E+04  +1.476E+03  -7.356E-01  -1.934E+03  +2.055E+03  -1.327E+03  +9.680E+02  +5.435E+03
  +1.17E+05  +1.16E+05  +1.11E+05  +1.476E+03  -7.356E-01  -1.934E+03  +2.055E+03  -1.327E+03  +9.680E+02  +5.435E+03

element # = 1322     type =4-n tetrahedron
 XX         YY         ZZ         SIGXX       SIGYY       SIGZZ       TAUXY       TAUYZ       TAUZX       SIGV
  +6.36E+03  +2.33E+05  +8.24E+04  -1.719E+03  -4.348E+03  -4.221E+02  -8.834E+01  -1.392E+03  +9.947E+02  +4.562E+03
  +6.36E+03  +2.35E+05  +1.02E+05  -1.719E+03  -4.348E+03  -4.221E+02  -8.834E+01  -1.392E+03  +9.947E+02  +4.562E+03
  +2.69E+04  +2.36E+05  +9.70E+04  -1.719E+03  -4.348E+03  -4.221E+02  -8.834E+01  -1.392E+03  +9.947E+02  +4.562E+03
  +6.36E+03  +2.16E+05  +8.72E+04  -1.719E+03  -4.348E+03  -4.221E+02  -8.834E+01  -1.392E+03  +9.947E+02  +4.562E+03

element # = 1323     type =4-n tetrahedron
 XX         YY         ZZ         SIGXX       SIGYY       SIGZZ       TAUXY       TAUYZ       TAUZX       SIGV
  +1.55E+05  +3.45E+05  +6.86E+04  +1.730E+03  +8.445E+02  +9.481E+02  -7.180E+02  -2.169E+03  -7.101E+02  +4.227E+03
  +1.89E+05  +3.65E+05  +8.73E+04  +1.730E+03  +8.445E+02  +9.481E+02  -7.180E+02  -2.169E+03  -7.101E+02  +4.227E+03
  +1.89E+05  +3.54E+05  +6.50E+04  +1.730E+03  +8.445E+02  +9.481E+02  -7.180E+02  -2.169E+03  -7.101E+02  +4.227E+03
  +1.89E+05  +3.43E+05  +8.73E+04  +1.730E+03  +8.445E+02  +9.481E+02  -7.180E+02  -2.169E+03  -7.101E+02  +4.227E+03

element # = 1324     type =4-n tetrahedron
 XX         YY         ZZ         SIGXX       SIGYY       SIGZZ       TAUXY       TAUYZ       TAUZX       SIGV
  +1.20E+04  +9.99E+04  +1.48E+05  +5.790E+02  +1.224E+04  +6.122E+02  -3.819E+02  -2.227E+03  +6.546E+02  +1.234E+04
  +1.20E+04  +7.37E+04  +1.47E+05  +5.790E+02  +1.224E+04  +6.122E+02  -3.819E+02  -2.227E+03  +6.546E+02  +1.234E+04
  +2.81E+04  +8.37E+04  +1.54E+05  +5.790E+02  +1.224E+04  +6.122E+02  -3.819E+02  -2.227E+03  +6.546E+02  +1.234E+04
  +3.45E+04  +9.15E+04  +1.34E+05  +5.790E+02  +1.224E+04  +6.122E+02  -3.819E+02  -2.227E+03  +6.546E+02  +1.234E+04

element # = 1325     type =4-n tetrahedron
 XX         YY         ZZ         SIGXX       SIGYY       SIGZZ       TAUXY       TAUYZ       TAUZX       SIGV
  +5.81E+03  +3.03E+05  +1.24E+05  +5.628E+02  +3.103E+03  -4.555E+02  -2.771E+02  -2.818E+03  +9.393E+02  +6.064E+03
  +5.81E+03  +3.11E+05  +1.42E+05  +5.628E+02  +3.103E+03  -4.555E+02  -2.771E+02  -2.818E+03  +9.393E+02  +6.064E+03
  +5.81E+03  +3.23E+05  +1.25E+05  +5.628E+02  +3.103E+03  -4.555E+02  -2.771E+02  -2.818E+03  +9.393E+02  +6.064E+03
  +2.46E+04  +3.09E+05  +1.20E+05  +5.628E+02  +3.103E+03  -4.555E+02  -2.771E+02  -2.818E+03  +9.393E+02  +6.064E+03

element # = 1326     type =4-n tetrahedron
 XX         YY         ZZ         SIGXX       SIGYY       SIGZZ       TAUXY       TAUYZ       TAUZX       SIGV
  +1.57E+05  +4.39E+05  +1.72E+05  +1.062E+03  +1.258E+04  +4.217E+02  +2.441E+02  -2.846E+02  +3.466E+02  +1.188E+04
  +1.57E+05  +4.42E+05  +1.93E+05  +1.062E+03  +1.258E+04  +4.217E+02  +2.441E+02  -2.846E+02  +3.466E+02  +1.188E+04
  +1.79E+05  +4.31E+05  +1.93E+05  +1.062E+03  +1.258E+04  +4.217E+02  +2.441E+02  -2.846E+02  +3.466E+02  +1.188E+04
  +1.57E+05  +4.20E+05  +1.93E+05  +1.062E+03  +1.258E+04  +4.217E+02  +2.441E+02  -2.846E+02  +3.466E+02  +1.188E+04

element # = 1327     type =4-n tetrahedron
 XX         YY         ZZ         SIGXX       SIGYY       SIGZZ       TAUXY       TAUYZ       TAUZX       SIGV
  +1.92E+05  +5.59E+05  +1.56E+05  -7.891E+01  +2.591E+03  -7.498E+02  +1.347E+02  -1.121E+03  -1.983E+02  +3.648E+03
  +1.92E+05  +5.70E+05  +1.78E+05  -7.891E+01  +2.591E+03  -7.498E+02  +1.347E+02  -1.121E+03  -1.983E+02  +3.648E+03
  +1.67E+05  +5.65E+05  +1.52E+05  -7.891E+01  +2.591E+03  -7.498E+02  +1.347E+02  -1.121E+03  -1.983E+02  +3.648E+03
  +1.92E+05  +5.81E+05  +1.56E+05  -7.891E+01  +2.591E+03  -7.498E+02  +1.347E+02  -1.121E+03  -1.983E+02  +3.648E+03

element # = 1328     type =4-n tetrahedron
 XX         YY         ZZ         SIGXX       SIGYY       SIGZZ       TAUXY       TAUYZ       TAUZX       SIGV
  +1.84E+04  +2.13E+05  +1.65E+05  +7.923E+02  +1.195E+04  +3.345E+02  -7.516E+02  -8.446E+01  -1.222E+03  +1.166E+04
  +4.08E+04  +2.12E+05  +1.83E+05  +7.923E+02  +1.195E+04  +3.345E+02  -7.516E+02  -8.446E+01  -1.222E+03  +1.166E+04
  +3.72E+04  +2.19E+05  +1.62E+05  +7.923E+02  +1.195E+04  +3.345E+02  -7.516E+02  -8.446E+01  -1.222E+03  +1.166E+04
  +3.65E+04  +2.00E+05  +1.67E+05  +7.923E+02  +1.195E+04  +3.345E+02  -7.516E+02  -8.446E+01  -1.222E+03  +1.166E+04

element # = 1329     type =4-n tetrahedron
 XX         YY         ZZ         SIGXX       SIGYY       SIGZZ       TAUXY       TAUYZ       TAUZX       SIGV
  +1.84E+05  +2.68E+05  +1.39E+05  +8.037E+02  +5.470E+03  +1.709E+02  -4.848E+02  -2.273E+03  -1.809E+02  +6.437E+03
  +1.59E+05  +2.91E+05  +1.34E+05  +8.037E+02  +5.470E+03  +1.709E+02  -4.848E+02  -2.273E+03  -1.809E+02  +6.437E+03
  +1.58E+05  +2.55E+05  +1.29E+05  +8.037E+02  +5.470E+03  +1.709E+02  -4.848E+02  -2.273E+03  -1.809E+02  +6.437E+03
  +1.84E+05  +2.78E+05  +1.16E+05  +8.037E+02  +5.470E+03  +1.709E+02  -4.848E+02  -2.273E+03  -1.809E+02  +6.437E+03

element # = 1330     type =4-n tetrahedron
 XX         YY         ZZ         SIGXX       SIGYY       SIGZZ       TAUXY       TAUYZ       TAUZX       SIGV
  +5.27E+03  +2.10E+05  +6.81E+04  +2.202E+03  -3.926E+03  +6.397E+02  -7.883E+02  -2.952E+03  +3.014E+02  +7.661E+03
  +2.23E+04  +2.26E+05  +5.02E+04  +2.202E+03  -3.926E+03  +6.397E+02  -7.883E+02  -2.952E+03  +3.014E+02  +7.661E+03
  +5.27E+03  +2.28E+05  +6.33E+04  +2.202E+03  -3.926E+03  +6.397E+02  -7.883E+02  -2.952E+03  +3.014E+02  +7.661E+03
  +5.27E+03  +2.18E+05  +4.88E+04  +2.202E+03  -3.926E+03  +6.397E+02  -7.883E+02  -2.952E+03  +3.014E+02  +7.661E+03

element # = 1331     type =4-n tetrahedron
 XX         YY         ZZ         SIGXX       SIGYY       SIGZZ       TAUXY       TAUYZ       TAUZX       SIGV
  +1.04E+05  +4.33E+05  +2.54E+04  +5.032E+01  -3.911E+03  +3.319E+02  +3.857E+01  -1.000E+03  +1.896E+02  +4.472E+03
  +1.23E+05  +4.45E+05  +4.96E+04  +5.032E+01  -3.911E+03  +3.319E+02  +3.857E+01  -1.000E+03  +1.896E+02  +4.472E+03
  +1.15E+05  +4.20E+05  +5.49E+04  +5.032E+01  -3.911E+03  +3.319E+02  +3.857E+01  -1.000E+03  +1.896E+02  +4.472E+03
  +8.72E+04  +4.52E+05  +5.37E+04  +5.032E+01  -3.911E+03  +3.319E+02  +3.857E+01  -1.000E+03  +1.896E+02  +4.472E+03

element # = 1332     type =4-n tetrahedron
 XX         YY         ZZ         SIGXX       SIGYY       SIGZZ       TAUXY       TAUYZ       TAUZX       SIGV
  +6.95E+04  +4.11E+05  +4.19E+04  -4.829E+01  -5.286E+03  -1.241E+02  -3.168E+02  -1.276E+03  -1.011E+02  +5.679E+03
  +9.15E+04  +4.25E+05  +2.36E+04  -4.829E+01  -5.286E+03  -1.241E+02  -3.168E+02  -1.276E+03  -1.011E+02  +5.679E+03
  +1.03E+05  +4.12E+05  +5.31E+04  -4.829E+01  -5.286E+03  -1.241E+02  -3.168E+02  -1.276E+03  -1.011E+02  +5.679E+03
  +7.46E+04  +4.44E+05  +5.19E+04  -4.829E+01  -5.286E+03  -1.241E+02  -3.168E+02  -1.276E+03  -1.011E+02  +5.679E+03

element # = 1333     type =4-n tetrahedron
 XX         YY         ZZ         SIGXX       SIGYY       SIGZZ       TAUXY       TAUYZ       TAUZX       SIGV
  +6.98E+03  +1.02E+05  +1.39E+05  +2.136E+03  +1.251E+04  -1.273E+02  -5.630E+02  -2.431E+03  +1.492E+03  +1.271E+04
  +6.98E+03  +7.53E+04  +1.38E+05  +2.136E+03  +1.251E+04  -1.273E+02  -5.630E+02  -2.431E+03  +1.492E+03  +1.271E+04
  +2.96E+04  +9.31E+04  +1.25E+05  +2.136E+03  +1.251E+04  -1.273E+02  -5.630E+02  -2.431E+03  +1.492E+03  +1.271E+04
  +6.98E+03  +9.05E+04  +1.16E+05  +2.136E+03  +1.251E+04  -1.273E+02  -5.630E+02  -2.431E+03  +1.492E+03  +1.271E+04

element # = 1334     type =4-n tetrahedron
 XX         YY         ZZ         SIGXX       SIGYY       SIGZZ       TAUXY       TAUYZ       TAUZX       SIGV
  +1.25E+05  +4.63E+05  +6.55E+04  -2.063E+02  -3.288E+03  -8.667E+02  +5.850E+00  -2.626E+03  -2.752E+02  +5.367E+03
  +1.08E+05  +4.61E+05  +9.40E+04  -2.063E+02  -3.288E+03  -8.667E+02  +5.850E+00  -2.626E+03  -2.752E+02  +5.367E+03
  +8.94E+04  +4.70E+05  +6.96E+04  -2.063E+02  -3.288E+03  -8.667E+02  +5.850E+00  -2.626E+03  -2.752E+02  +5.367E+03
  +1.23E+05  +4.90E+05  +6.97E+04  -2.063E+02  -3.288E+03  -8.667E+02  +5.850E+00  -2.626E+03  -2.752E+02  +5.367E+03

element # = 1335     type =4-n tetrahedron
 XX         YY         ZZ         SIGXX       SIGYY       SIGZZ       TAUXY       TAUYZ       TAUZX       SIGV
  +1.15E+05  +9.85E+05  +9.54E+04  +2.460E+01  +4.091E+01  -1.393E+02  +4.664E+00  -1.216E+02  -8.813E+00  +2.729E+02
  +1.32E+05  +9.61E+05  +7.36E+04  +2.460E+01  +4.091E+01  -1.393E+02  +4.664E+00  -1.216E+02  -8.813E+00  +2.729E+02
  +1.22E+05  +9.59E+05  +1.02E+05  +2.460E+01  +4.091E+01  -1.393E+02  +4.664E+00  -1.216E+02  -8.813E+00  +2.729E+02
  +1.41E+05  +9.85E+05  +9.54E+04  +2.460E+01  +4.091E+01  -1.393E+02  +4.664E+00  -1.216E+02  -8.813E+00  +2.729E+02

element # = 1336     type =4-n tetrahedron
 XX         YY         ZZ         SIGXX       SIGYY       SIGZZ       TAUXY       TAUYZ       TAUZX       SIGV
  +1.93E+05  +9.22E+05  +7.25E+03  -2.315E+01  -1.368E+02  -9.259E+01  -2.123E+01  -1.212E+02  +1.485E+01  +2.365E+02
  +1.69E+05  +9.40E+05  +7.25E+03  -2.315E+01  -1.368E+02  -9.259E+01  -2.123E+01  -1.212E+02  +1.485E+01  +2.365E+02
  +1.93E+05  +9.44E+05  +7.25E+03  -2.315E+01  -1.368E+02  -9.259E+01  -2.123E+01  -1.212E+02  +1.485E+01  +2.365E+02
  +1.93E+05  +9.40E+05  +3.07E+04  -2.315E+01  -1.368E+02  -9.259E+01  -2.123E+01  -1.212E+02  +1.485E+01  +2.365E+02

element # = 1337     type =4-n tetrahedron
 XX         YY         ZZ         SIGXX       SIGYY       SIGZZ       TAUXY       TAUYZ       TAUZX       SIGV
  +1.93E+05  +9.22E+05  +1.93E+05  +3.444E+01  +2.097E+02  -3.710E+02  +2.448E+01  -1.394E+02  +6.482E+00  +5.712E+02
  +1.93E+05  +9.44E+05  +1.93E+05  +3.444E+01  +2.097E+02  -3.710E+02  +2.448E+01  -1.394E+02  +6.482E+00  +5.712E+02
  +1.69E+05  +9.40E+05  +1.93E+05  +3.444E+01  +2.097E+02  -3.710E+02  +2.448E+01  -1.394E+02  +6.482E+00  +5.712E+02
  +1.93E+05  +9.40E+05  +1.69E+05  +3.444E+01  +2.097E+02  -3.710E+02  +2.448E+01  -1.394E+02  +6.482E+00  +5.712E+02

element # = 1338     type =4-n tetrahedron
 XX         YY         ZZ         SIGXX       SIGYY       SIGZZ       TAUXY       TAUYZ       TAUZX       SIGV
  +1.88E+05  +9.48E+05  +1.09E+05  -8.792E+01  -1.220E+02  -4.400E+02  -1.377E+01  -2.368E+02  +6.951E+00  +5.310E+02
  +1.88E+05  +9.27E+05  +1.09E+05  -8.792E+01  -1.220E+02  -4.400E+02  -1.377E+01  -2.368E+02  +6.951E+00  +5.310E+02
  +1.50E+05  +9.41E+05  +1.15E+05  -8.792E+01  -1.220E+02  -4.400E+02  -1.377E+01  -2.368E+02  +6.951E+00  +5.310E+02
  +1.88E+05  +9.42E+05  +1.30E+05  -8.792E+01  -1.220E+02  -4.400E+02  -1.377E+01  -2.368E+02  +6.951E+00  +5.310E+02

element # = 1339     type =4-n tetrahedron
 XX         YY         ZZ         SIGXX       SIGYY       SIGZZ       TAUXY       TAUYZ       TAUZX       SIGV
  +4.30E+04  +4.74E+04  +1.42E+05  +3.811E+03  +2.035E+04  +2.728E+03  +5.570E+02  -4.424E+03  +1.299E+03  +1.890E+04
  +4.25E+04  +6.42E+04  +1.59E+05  +3.811E+03  +2.035E+04  +2.728E+03  +5.570E+02  -4.424E+03  +1.299E+03  +1.890E+04
  +6.22E+04  +5.23E+04  +1.56E+05  +3.811E+03  +2.035E+04  +2.728E+03  +5.570E+02  -4.424E+03  +1.299E+03  +1.890E+04
  +4.36E+04  +4.38E+04  +1.61E+05  +3.811E+03  +2.035E+04  +2.728E+03  +5.570E+02  -4.424E+03  +1.299E+03  +1.890E+04

element # = 1340     type =4-n tetrahedron
 XX         YY         ZZ         SIGXX       SIGYY       SIGZZ       TAUXY       TAUYZ       TAUZX       SIGV
  +1.38E+05  +9.92E+05  +1.30E+05  -4.097E+01  +4.057E+00  -3.210E+02  +1.003E+01  -8.258E+01  +1.151E+01  +3.380E+02
  +1.17E+05  +9.92E+05  +1.09E+05  -4.097E+01  +4.057E+00  -3.210E+02  +1.003E+01  -8.258E+01  +1.151E+01  +3.380E+02
  +1.23E+05  +9.66E+05  +1.16E+05  -4.097E+01  +4.057E+00  -3.210E+02  +1.003E+01  -8.258E+01  +1.151E+01  +3.380E+02
  +1.42E+05  +9.92E+05  +1.09E+05  -4.097E+01  +4.057E+00  -3.210E+02  +1.003E+01  -8.258E+01  +1.151E+01  +3.380E+02

element # = 1341     type =4-n tetrahedron
 XX         YY         ZZ         SIGXX       SIGYY       SIGZZ       TAUXY       TAUYZ       TAUZX       SIGV
  +1.65E+05  +1.89E+05  +7.30E+04  -1.243E+02  -1.675E+02  +5.442E+02  -3.458E+01  -2.371E+03  -5.288E+02  +4.264E+03
  +1.92E+05  +2.18E+05  +8.84E+04  -1.243E+02  -1.675E+02  +5.442E+02  -3.458E+01  -2.371E+03  -5.288E+02  +4.264E+03
  +1.92E+05  +2.07E+05  +6.61E+04  -1.243E+02  -1.675E+02  +5.442E+02  -3.458E+01  -2.371E+03  -5.288E+02  +4.264E+03
  +1.92E+05  +1.96E+05  +8.84E+04  -1.243E+02  -1.675E+02  +5.442E+02  -3.458E+01  -2.371E+03  -5.288E+02  +4.264E+03

element # = 1342     type =4-n tetrahedron
 XX         YY         ZZ         SIGXX       SIGYY       SIGZZ       TAUXY       TAUYZ       TAUZX       SIGV
  +5.81E+03  +2.29E+05  +1.27E+05  -2.444E+03  +3.040E+03  -9.384E+02  +6.451E+02  -2.281E+03  +2.679E+02  +6.415E+03
  +2.46E+04  +2.24E+05  +1.45E+05  -2.444E+03  +3.040E+03  -9.384E+02  +6.451E+02  -2.281E+03  +2.679E+02  +6.415E+03
  +5.81E+03  +2.08E+05  +1.31E+05  -2.444E+03  +3.040E+03  -9.384E+02  +6.451E+02  -2.281E+03  +2.679E+02  +6.415E+03
  +5.81E+03  +2.18E+05  +1.47E+05  -2.444E+03  +3.040E+03  -9.384E+02  +6.451E+02  -2.281E+03  +2.679E+02  +6.415E+03

element # = 1343     type =4-n tetrahedron
 XX         YY         ZZ         SIGXX       SIGYY       SIGZZ       TAUXY       TAUYZ       TAUZX       SIGV
  +1.86E+05  +4.15E+05  +2.93E+04  -1.494E+03  -1.160E+04  -1.812E+03  -2.895E+02  -1.677E+03  -2.083E+02  +1.039E+04
  +1.64E+05  +4.36E+05  +6.91E+03  -1.494E+03  -1.160E+04  -1.812E+03  -2.895E+02  -1.677E+03  -2.083E+02  +1.039E+04
  +1.64E+05  +4.15E+05  +6.91E+03  -1.494E+03  -1.160E+04  -1.812E+03  -2.895E+02  -1.677E+03  -2.083E+02  +1.039E+04
  +1.86E+05  +4.25E+05  +6.91E+03  -1.494E+03  -1.160E+04  -1.812E+03  -2.895E+02  -1.677E+03  -2.083E+02  +1.039E+04

element # = 1344     type =4-n tetrahedron
 XX         YY         ZZ         SIGXX       SIGYY       SIGZZ       TAUXY       TAUYZ       TAUZX       SIGV
  +1.69E+05  +9.31E+05  +1.42E+04  +2.490E+01  -1.153E+02  +3.515E+00  -2.096E+01  -1.535E+02  -1.901E+01  +3.004E+02
  +1.93E+05  +9.13E+05  +1.42E+04  +2.490E+01  -1.153E+02  +3.515E+00  -2.096E+01  -1.535E+02  -1.901E+01  +3.004E+02
  +1.93E+05  +9.05E+05  +3.68E+04  +2.490E+01  -1.153E+02  +3.515E+00  -2.096E+01  -1.535E+02  -1.901E+01  +3.004E+02
  +1.93E+05  +9.31E+05  +3.77E+04  +2.490E+01  -1.153E+02  +3.515E+00  -2.096E+01  -1.535E+02  -1.901E+01  +3.004E+02

element # = 1345     type =4-n tetrahedron
 XX         YY         ZZ         SIGXX       SIGYY       SIGZZ       TAUXY       TAUYZ       TAUZX       SIGV
  +1.04E+05  +2.10E+05  +8.22E+04  -1.018E+03  -1.485E+03  -1.488E+03  +1.067E+03  -1.927E+03  -1.309E+01  +3.843E+03
  +1.26E+05  +1.91E+05  +8.48E+04  -1.018E+03  -1.485E+03  -1.488E+03  +1.067E+03  -1.927E+03  -1.309E+01  +3.843E+03
  +1.04E+05  +2.04E+05  +1.21E+05  -1.018E+03  -1.485E+03  -1.488E+03  +1.067E+03  -1.927E+03  -1.309E+01  +3.843E+03
  +1.27E+05  +2.17E+05  +1.13E+05  -1.018E+03  -1.485E+03  -1.488E+03  +1.067E+03  -1.927E+03  -1.309E+01  +3.843E+03

element # = 1346     type =4-n tetrahedron
 XX         YY         ZZ         SIGXX       SIGYY       SIGZZ       TAUXY       TAUYZ       TAUZX       SIGV
  +1.36E+04  +5.33E+05  +8.40E+04  +6.102E+02  -9.001E+02  +1.180E+02  +2.257E+02  -1.707E+03  -2.510E+01  +3.267E+03
  +3.83E+04  +5.34E+05  +5.94E+04  +6.102E+02  -9.001E+02  +1.180E+02  +2.257E+02  -1.707E+03  -2.510E+01  +3.267E+03
  +3.31E+04  +5.55E+05  +7.87E+04  +6.102E+02  -9.001E+02  +1.180E+02  +2.257E+02  -1.707E+03  -2.510E+01  +3.267E+03
  +1.36E+04  +5.44E+05  +6.17E+04  +6.102E+02  -9.001E+02  +1.180E+02  +2.257E+02  -1.707E+03  -2.510E+01  +3.267E+03

element # = 1347     type =4-n tetrahedron
 XX         YY         ZZ         SIGXX       SIGYY       SIGZZ       TAUXY       TAUYZ       TAUZX       SIGV
  +1.62E+05  +2.00E+05  +2.29E+04  +1.424E+03  -9.874E+03  +1.465E+03  +6.057E+02  -1.351E+03  -1.882E+02  +1.161E+04
  +1.85E+05  +1.79E+05  +4.54E+04  +1.424E+03  -9.874E+03  +1.465E+03  +6.057E+02  -1.351E+03  -1.882E+02  +1.161E+04
  +1.58E+05  +1.82E+05  +5.23E+04  +1.424E+03  -9.874E+03  +1.465E+03  +6.057E+02  -1.351E+03  -1.882E+02  +1.161E+04
  +1.85E+05  +2.00E+05  +4.54E+04  +1.424E+03  -9.874E+03  +1.465E+03  +6.057E+02  -1.351E+03  -1.882E+02  +1.161E+04

element # = 1348     type =4-n tetrahedron
 XX         YY         ZZ         SIGXX       SIGYY       SIGZZ       TAUXY       TAUYZ       TAUZX       SIGV
  +1.20E+05  +8.97E+04  +5.00E+04  -1.568E+03  -1.441E+04  +9.699E+02  -8.015E+02  -7.799E+02  +1.896E+03  +1.478E+04
  +9.41E+04  +7.40E+04  +4.16E+04  -1.568E+03  -1.441E+04  +9.699E+02  -8.015E+02  -7.799E+02  +1.896E+03  +1.478E+04
  +1.00E+05  +8.91E+04  +2.24E+04  -1.568E+03  -1.441E+04  +9.699E+02  -8.015E+02  -7.799E+02  +1.896E+03  +1.478E+04
  +8.77E+04  +1.09E+05  +4.78E+04  -1.568E+03  -1.441E+04  +9.699E+02  -8.015E+02  -7.799E+02  +1.896E+03  +1.478E+04

element # = 1349     type =4-n tetrahedron
 XX         YY         ZZ         SIGXX       SIGYY       SIGZZ       TAUXY       TAUYZ       TAUZX       SIGV
  +4.77E+04  +5.15E+05  +6.54E+04  -1.045E+03  -3.659E+03  -1.096E+03  -7.219E+01  -1.263E+03  -1.995E+02  +3.409E+03
  +4.54E+04  +5.09E+05  +9.83E+04  -1.045E+03  -3.659E+03  -1.096E+03  -7.219E+01  -1.263E+03  -1.995E+02  +3.409E+03
  +5.09E+04  +4.90E+05  +7.36E+04  -1.045E+03  -3.659E+03  -1.096E+03  -7.219E+01  -1.263E+03  -1.995E+02  +3.409E+03
  +2.31E+04  +5.14E+05  +9.01E+04  -1.045E+03  -3.659E+03  -1.096E+03  -7.219E+01  -1.263E+03  -1.995E+02  +3.409E+03

element # = 1350     type =4-n tetrahedron
 XX         YY         ZZ         SIGXX       SIGYY       SIGZZ       TAUXY       TAUYZ       TAUZX       SIGV
  +4.36E+04  +4.09E+05  +2.40E+04  -2.475E+02  -1.018E+04  +1.759E+02  -1.175E+02  -1.655E+03  -4.497E+02  +1.058E+04
  +4.32E+04  +4.35E+05  +5.67E+03  -2.475E+02  -1.018E+04  +1.759E+02  -1.175E+02  -1.655E+03  -4.497E+02  +1.058E+04
  +2.09E+04  +4.24E+05  +5.67E+03  -2.475E+02  -1.018E+04  +1.759E+02  -1.175E+02  -1.655E+03  -4.497E+02  +1.058E+04
  +4.32E+04  +4.13E+05  +5.67E+03  -2.475E+02  -1.018E+04  +1.759E+02  -1.175E+02  -1.655E+03  -4.497E+02  +1.058E+04

element # = 1351     type =4-n tetrahedron
 XX         YY         ZZ         SIGXX       SIGYY       SIGZZ       TAUXY       TAUYZ       TAUZX       SIGV
  +6.94E+03  +1.56E+05  +6.23E+03  -1.179E+03  -2.209E+04  -5.672E+02  +1.424E+02  -1.605E+03  +1.419E+03  +2.155E+04
  +2.94E+04  +1.65E+05  +6.23E+03  -1.179E+03  -2.209E+04  -5.672E+02  +1.424E+02  -1.605E+03  +1.419E+03  +2.155E+04
  +6.94E+03  +1.66E+05  +2.64E+04  -1.179E+03  -2.209E+04  -5.672E+02  +1.424E+02  -1.605E+03  +1.419E+03  +2.155E+04
  +6.94E+03  +1.77E+05  +6.23E+03  -1.179E+03  -2.209E+04  -5.672E+02  +1.424E+02  -1.605E+03  +1.419E+03  +2.155E+04

element # = 1352     type =4-n tetrahedron
 XX         YY         ZZ         SIGXX       SIGYY       SIGZZ       TAUXY       TAUYZ       TAUZX       SIGV
  +1.93E+05  +9.87E+05  +7.50E+04  -1.163E+01  -3.737E+01  -1.922E+02  +1.936E+01  -1.144E+02  +3.453E+01  +2.694E+02
  +1.70E+05  +9.87E+05  +6.24E+04  -1.163E+01  -3.737E+01  -1.922E+02  +1.936E+01  -1.144E+02  +3.453E+01  +2.694E+02
  +1.93E+05  +9.68E+05  +8.40E+04  -1.163E+01  -3.737E+01  -1.922E+02  +1.936E+01  -1.144E+02  +3.453E+01  +2.694E+02
  +1.93E+05  +9.62E+05  +6.27E+04  -1.163E+01  -3.737E+01  -1.922E+02  +1.936E+01  -1.144E+02  +3.453E+01  +2.694E+02

element # = 1353     type =4-n tetrahedron
 XX         YY         ZZ         SIGXX       SIGYY       SIGZZ       TAUXY       TAUYZ       TAUZX       SIGV
  +1.70E+05  +9.92E+05  +5.41E+04  -6.189E+00  -6.809E+01  -9.311E+01  -1.245E+01  -8.618E+01  +2.254E+01  +1.740E+02
  +1.93E+05  +9.92E+05  +6.67E+04  -6.189E+00  -6.809E+01  -9.311E+01  -1.245E+01  -8.618E+01  +2.254E+01  +1.740E+02
  +1.93E+05  +9.92E+05  +4.89E+04  -6.189E+00  -6.809E+01  -9.311E+01  -1.245E+01  -8.618E+01  +2.254E+01  +1.740E+02
  +1.93E+05  +9.67E+05  +5.44E+04  -6.189E+00  -6.809E+01  -9.311E+01  -1.245E+01  -8.618E+01  +2.254E+01  +1.740E+02

element # = 1354     type =4-n tetrahedron
 XX         YY         ZZ         SIGXX       SIGYY       SIGZZ       TAUXY       TAUYZ       TAUZX       SIGV
  +1.92E+05  +5.84E+04  +1.36E+05  -2.701E+03  +2.825E+02  -2.818E+02  -4.924E+02  -1.954E+03  -9.120E+02  +4.713E+03
  +1.65E+05  +5.92E+04  +1.41E+05  -2.701E+03  +2.825E+02  -2.818E+02  -4.924E+02  -1.954E+03  -9.120E+02  +4.713E+03
  +1.92E+05  +5.18E+04  +1.15E+05  -2.701E+03  +2.825E+02  -2.818E+02  -4.924E+02  -1.954E+03  -9.120E+02  +4.713E+03
  +1.92E+05  +7.26E+04  +1.15E+05  -2.701E+03  +2.825E+02  -2.818E+02  -4.924E+02  -1.954E+03  -9.120E+02  +4.713E+03

element # = 1355     type =4-n tetrahedron
 XX         YY         ZZ         SIGXX       SIGYY       SIGZZ       TAUXY       TAUYZ       TAUZX       SIGV
  +1.43E+05  +4.59E+05  +1.72E+05  +1.256E+02  +8.031E+03  -7.128E+02  +5.261E+02  -1.539E+03  -7.126E+02  +8.904E+03
  +1.43E+05  +4.61E+05  +1.93E+05  +1.256E+02  +8.031E+03  -7.128E+02  +5.261E+02  -1.539E+03  -7.126E+02  +8.904E+03
  +1.21E+05  +4.72E+05  +1.93E+05  +1.256E+02  +8.031E+03  -7.128E+02  +5.261E+02  -1.539E+03  -7.126E+02  +8.904E+03
  +1.43E+05  +4.83E+05  +1.93E+05  +1.256E+02  +8.031E+03  -7.128E+02  +5.261E+02  -1.539E+03  -7.126E+02  +8.904E+03

element # = 1356     type =4-n tetrahedron
 XX         YY         ZZ         SIGXX       SIGYY       SIGZZ       TAUXY       TAUYZ       TAUZX       SIGV
  +9.86E+04  +8.26E+05  +1.37E+04  -1.475E+02  -9.513E+02  -2.032E+02  +1.650E+01  -3.295E+02  -4.828E+01  +9.684E+02
  +9.86E+04  +8.48E+05  +1.37E+04  -1.475E+02  -9.513E+02  -2.032E+02  +1.650E+01  -3.295E+02  -4.828E+01  +9.684E+02
  +1.15E+05  +8.43E+05  +4.15E+04  -1.475E+02  -9.513E+02  -2.032E+02  +1.650E+01  -3.295E+02  -4.828E+01  +9.684E+02
  +7.69E+04  +8.33E+05  +3.05E+04  -1.475E+02  -9.513E+02  -2.032E+02  +1.650E+01  -3.295E+02  -4.828E+01  +9.684E+02

element # = 1357     type =4-n tetrahedron
 XX         YY         ZZ         SIGXX       SIGYY       SIGZZ       TAUXY       TAUYZ       TAUZX       SIGV
  +1.87E+05  +5.66E+03  +1.18E+05  -6.568E+02  -1.533E+03  -6.568E+02  -7.942E+01  -3.377E+03  +0.000E+00  +5.917E+03
  +1.68E+05  +5.66E+03  +1.09E+05  -6.568E+02  -1.533E+03  -6.568E+02  -7.942E+01  -3.377E+03  +0.000E+00  +5.917E+03
  +1.87E+05  +2.40E+04  +1.09E+05  -6.568E+02  -1.533E+03  -6.568E+02  -7.942E+01  -3.377E+03  +0.000E+00  +5.917E+03
  +1.64E+05  +5.66E+03  +1.31E+05  -6.568E+02  -1.533E+03  -6.568E+02  -7.942E+01  -3.377E+03  +0.000E+00  +5.917E+03

element # = 1358     type =4-n tetrahedron
 XX         YY         ZZ         SIGXX       SIGYY       SIGZZ       TAUXY       TAUYZ       TAUZX       SIGV
  +1.93E+05  +3.84E+04  +1.37E+05  -1.471E+03  +5.110E+03  -2.003E+03  +2.255E+03  +1.787E+03  -2.337E+03  +9.397E+03
  +1.93E+05  +1.34E+04  +1.25E+05  -1.471E+03  +5.110E+03  -2.003E+03  +2.255E+03  +1.787E+03  -2.337E+03  +9.397E+03
  +1.93E+05  +3.17E+04  +1.16E+05  -1.471E+03  +5.110E+03  -2.003E+03  +2.255E+03  +1.787E+03  -2.337E+03  +9.397E+03
  +1.70E+05  +1.34E+04  +1.38E+05  -1.471E+03  +5.110E+03  -2.003E+03  +2.255E+03  +1.787E+03  -2.337E+03  +9.397E+03

element # = 1359     type =4-n tetrahedron
 XX         YY         ZZ         SIGXX       SIGYY       SIGZZ       TAUXY       TAUYZ       TAUZX       SIGV
  +7.65E+04  +1.62E+05  +9.83E+04  -7.419E+02  -3.745E+03  -8.580E+02  -7.661E+02  -3.459E+03  -3.727E+01  +6.807E+03
  +1.16E+05  +1.61E+05  +8.01E+04  -7.419E+02  -3.745E+03  -8.580E+02  -7.661E+02  -3.459E+03  -3.727E+01  +6.807E+03
  +8.58E+04  +1.43E+05  +7.61E+04  -7.419E+02  -3.745E+03  -8.580E+02  -7.661E+02  -3.459E+03  -3.727E+01  +6.807E+03
  +1.10E+05  +1.45E+05  +1.12E+05  -7.419E+02  -3.745E+03  -8.580E+02  -7.661E+02  -3.459E+03  -3.727E+01  +6.807E+03

element # = 1360     type =4-n tetrahedron
 XX         YY         ZZ         SIGXX       SIGYY       SIGZZ       TAUXY       TAUYZ       TAUZX       SIGV
  +4.24E+04  +9.94E+05  +6.58E+04  -2.130E+01  -2.951E+01  -1.533E+02  -1.336E+01  -8.978E+01  -1.049E+01  +2.036E+02
  +3.94E+04  +9.76E+05  +7.72E+04  -2.130E+01  -2.951E+01  -1.533E+02  -1.336E+01  -8.978E+01  -1.049E+01  +2.036E+02
  +1.93E+04  +9.94E+05  +7.84E+04  -2.130E+01  -2.951E+01  -1.533E+02  -1.336E+01  -8.978E+01  -1.049E+01  +2.036E+02
  +3.84E+04  +9.94E+05  +8.74E+04  -2.130E+01  -2.951E+01  -1.533E+02  -1.336E+01  -8.978E+01  -1.049E+01  +2.036E+02

element # = 1361     type =4-n tetrahedron
 XX         YY         ZZ         SIGXX       SIGYY       SIGZZ       TAUXY       TAUYZ       TAUZX       SIGV
  +4.91E+03  +9.63E+05  +5.21E+04  -1.072E+01  -7.495E+01  -1.068E+02  -8.892E+00  -8.959E+01  -3.072E+01  +1.853E+02
  +4.91E+03  +9.88E+05  +4.65E+04  -1.072E+01  -7.495E+01  -1.068E+02  -8.892E+00  -8.959E+01  -3.072E+01  +1.853E+02
  +2.08E+04  +9.72E+05  +4.41E+04  -1.072E+01  -7.495E+01  -1.068E+02  -8.892E+00  -8.959E+01  -3.072E+01  +1.853E+02
  +4.91E+03  +9.88E+05  +6.44E+04  -1.072E+01  -7.495E+01  -1.068E+02  -8.892E+00  -8.959E+01  -3.072E+01  +1.853E+02

element # = 1362     type =4-n tetrahedron
 XX         YY         ZZ         SIGXX       SIGYY       SIGZZ       TAUXY       TAUYZ       TAUZX       SIGV
  +3.13E+04  +9.64E+05  +6.82E+04  +1.351E+01  -5.390E+01  -9.883E+01  -1.969E+01  -9.741E+01  -2.502E+01  +2.027E+02
  +1.11E+04  +9.57E+05  +5.72E+04  +1.351E+01  -5.390E+01  -9.883E+01  -1.969E+01  -9.741E+01  -2.502E+01  +2.027E+02
  +2.70E+04  +9.67E+05  +4.92E+04  +1.351E+01  -5.390E+01  -9.883E+01  -1.969E+01  -9.741E+01  -2.502E+01  +2.027E+02
  +1.11E+04  +9.82E+05  +6.95E+04  +1.351E+01  -5.390E+01  -9.883E+01  -1.969E+01  -9.741E+01  -2.502E+01  +2.027E+02

element # = 1363     type =4-n tetrahedron
 XX         YY         ZZ         SIGXX       SIGYY       SIGZZ       TAUXY       TAUYZ       TAUZX       SIGV
  +1.20E+04  +9.95E+05  +4.64E+04  -6.212E+00  -1.189E+01  -8.655E+01  +3.376E+00  -6.339E+01  -5.618E+00  +1.350E+02
  +3.51E+04  +9.95E+05  +5.16E+04  -6.212E+00  -1.189E+01  -8.655E+01  +3.376E+00  -6.339E+01  -5.618E+00  +1.350E+02
  +2.79E+04  +9.80E+05  +4.40E+04  -6.212E+00  -1.189E+01  -8.655E+01  +3.376E+00  -6.339E+01  -5.618E+00  +1.350E+02
  +1.20E+04  +9.95E+05  +6.43E+04  -6.212E+00  -1.189E+01  -8.655E+01  +3.376E+00  -6.339E+01  -5.618E+00  +1.350E+02

element # = 1364     type =4-n tetrahedron
 XX         YY         ZZ         SIGXX       SIGYY       SIGZZ       TAUXY       TAUYZ       TAUZX       SIGV
  +4.14E+04  +9.90E+05  +5.67E+04  +1.522E+01  +1.592E+01  -8.033E+01  -8.019E+00  -7.078E+01  +4.338E-01  +1.563E+02
  +3.84E+04  +9.71E+05  +6.81E+04  +1.522E+01  +1.592E+01  -8.033E+01  -8.019E+00  -7.078E+01  +4.338E-01  +1.563E+02
  +3.42E+04  +9.74E+05  +4.91E+04  +1.522E+01  +1.592E+01  -8.033E+01  -8.019E+00  -7.078E+01  +4.338E-01  +1.563E+02
  +1.83E+04  +9.90E+05  +6.94E+04  +1.522E+01  +1.592E+01  -8.033E+01  -8.019E+00  -7.078E+01  +4.338E-01  +1.563E+02

element # = 1365     type =4-n tetrahedron
 XX         YY         ZZ         SIGXX       SIGYY       SIGZZ       TAUXY       TAUYZ       TAUZX       SIGV
  +1.92E+05  +8.71E+04  +1.80E+05  +9.284E+01  +1.130E+04  -5.961E+02  +7.622E+02  -8.328E+02  -2.206E+03  +1.234E+04
  +1.65E+05  +7.03E+04  +1.62E+05  +9.284E+01  +1.130E+04  -5.961E+02  +7.622E+02  -8.328E+02  -2.206E+03  +1.234E+04
  +1.92E+05  +6.95E+04  +1.57E+05  +9.284E+01  +1.130E+04  -5.961E+02  +7.622E+02  -8.328E+02  -2.206E+03  +1.234E+04
  +1.92E+05  +9.52E+04  +1.58E+05  +9.284E+01  +1.130E+04  -5.961E+02  +7.622E+02  -8.328E+02  -2.206E+03  +1.234E+04

element # = 1366     type =4-n tetrahedron
 XX         YY         ZZ         SIGXX       SIGYY       SIGZZ       TAUXY       TAUYZ       TAUZX       SIGV
  +1.49E+05  +9.07E+04  +9.10E+04  +1.894E+03  +1.159E+04  +1.157E+03  +8.557E+01  -4.011E+03  +3.637E+02  +1.226E+04
  +1.47E+05  +7.67E+04  +1.35E+05  +1.894E+03  +1.159E+04  +1.157E+03  +8.557E+01  -4.011E+03  +3.637E+02  +1.226E+04
  +1.41E+05  +1.11E+05  +1.25E+05  +1.894E+03  +1.159E+04  +1.157E+03  +8.557E+01  -4.011E+03  +3.637E+02  +1.226E+04
  +1.74E+05  +9.01E+04  +1.08E+05  +1.894E+03  +1.159E+04  +1.157E+03  +8.557E+01  -4.011E+03  +3.637E+02  +1.226E+04

element # = 1367     type =4-n tetrahedron
 XX         YY         ZZ         SIGXX       SIGYY       SIGZZ       TAUXY       TAUYZ       TAUZX       SIGV
  +1.27E+05  +3.31E+04  +1.07E+05  -8.392E+02  -1.231E+03  -6.355E+02  -9.635E+01  -3.370E+03  -4.972E+01  +5.863E+03
  +1.73E+05  +3.05E+04  +1.07E+05  -8.392E+02  -1.231E+03  -6.355E+02  -9.635E+01  -3.370E+03  -4.972E+01  +5.863E+03
  +1.54E+05  +1.21E+04  +1.07E+05  -8.392E+02  -1.231E+03  -6.355E+02  -9.635E+01  -3.370E+03  -4.972E+01  +5.863E+03
  +1.50E+05  +1.21E+04  +1.28E+05  -8.392E+02  -1.231E+03  -6.355E+02  -9.635E+01  -3.370E+03  -4.972E+01  +5.863E+03

element # = 1368     type =4-n tetrahedron
 XX         YY         ZZ         SIGXX       SIGYY       SIGZZ       TAUXY       TAUYZ       TAUZX       SIGV
  +1.29E+05  +8.88E+05  +1.24E+05  -1.265E+01  -1.933E+01  -2.994E+02  +1.514E+01  -3.526E+02  -3.088E+01  +6.759E+02
  +1.27E+05  +8.70E+05  +8.40E+04  -1.265E+01  -1.933E+01  -2.994E+02  +1.514E+01  -3.526E+02  -3.088E+01  +6.759E+02
  +1.17E+05  +9.12E+05  +1.08E+05  -1.265E+01  -1.933E+01  -2.994E+02  +1.514E+01  -3.526E+02  -3.088E+01  +6.759E+02
  +1.01E+05  +8.79E+05  +9.18E+04  -1.265E+01  -1.933E+01  -2.994E+02  +1.514E+01  -3.526E+02  -3.088E+01  +6.759E+02

element # = 1369     type =4-n tetrahedron
 XX         YY         ZZ         SIGXX       SIGYY       SIGZZ       TAUXY       TAUYZ       TAUZX       SIGV
  +4.39E+04  +1.28E+05  +1.94E+05  +5.914E+02  +2.349E+04  -1.596E+03  -2.358E+02  -8.603E+02  -1.179E+03  +2.420E+04
  +4.38E+04  +1.51E+05  +1.94E+05  +5.914E+02  +2.349E+04  -1.596E+03  -2.358E+02  -8.603E+02  -1.179E+03  +2.420E+04
  +2.13E+04  +1.41E+05  +1.94E+05  +5.914E+02  +2.349E+04  -1.596E+03  -2.358E+02  -8.603E+02  -1.179E+03  +2.420E+04
  +4.52E+04  +1.41E+05  +1.75E+05  +5.914E+02  +2.349E+04  -1.596E+03  -2.358E+02  -8.603E+02  -1.179E+03  +2.420E+04

element # = 1370     type =4-n tetrahedron
 XX         YY         ZZ         SIGXX       SIGYY       SIGZZ       TAUXY       TAUYZ       TAUZX       SIGV
  +9.17E+04  +6.93E+05  +9.77E+04  +2.014E+02  +1.234E+03  -8.252E+01  +4.368E+00  -1.020E+03  -7.484E+01  +2.140E+03
  +1.12E+05  +6.85E+05  +1.26E+05  +2.014E+02  +1.234E+03  -8.252E+01  +4.368E+00  -1.020E+03  -7.484E+01  +2.140E+03
  +7.28E+04  +6.87E+05  +1.15E+05  +2.014E+02  +1.234E+03  -8.252E+01  +4.368E+00  -1.020E+03  -7.484E+01  +2.140E+03
  +8.79E+04  +7.03E+05  +1.30E+05  +2.014E+02  +1.234E+03  -8.252E+01  +4.368E+00  -1.020E+03  -7.484E+01  +2.140E+03

element # = 1371     type =4-n tetrahedron
 XX         YY         ZZ         SIGXX       SIGYY       SIGZZ       TAUXY       TAUYZ       TAUZX       SIGV
  +1.25E+05  +7.17E+04  +1.62E+05  +8.880E+02  +1.327E+04  +1.728E+02  +1.276E+02  -1.074E+03  +3.634E+02  +1.291E+04
  +1.06E+05  +8.51E+04  +1.80E+05  +8.880E+02  +1.327E+04  +1.728E+02  +1.276E+02  -1.074E+03  +3.634E+02  +1.291E+04
  +9.75E+04  +6.95E+04  +1.61E+05  +8.880E+02  +1.327E+04  +1.728E+02  +1.276E+02  -1.074E+03  +3.634E+02  +1.291E+04
  +1.18E+05  +1.06E+05  +1.52E+05  +8.880E+02  +1.327E+04  +1.728E+02  +1.276E+02  -1.074E+03  +3.634E+02  +1.291E+04

element # = 1372     type =4-n tetrahedron
 XX         YY         ZZ         SIGXX       SIGYY       SIGZZ       TAUXY       TAUYZ       TAUZX       SIGV
  +2.09E+04  +6.14E+05  +9.73E+04  -7.483E+01  -7.354E+02  -3.382E+02  -1.343E+01  -9.628E+02  -4.398E+01  +1.766E+03
  +5.17E+04  +6.18E+05  +8.35E+04  -7.483E+01  -7.354E+02  -3.382E+02  -1.343E+01  -9.628E+02  -4.398E+01  +1.766E+03
  +4.03E+04  +5.93E+05  +9.20E+04  -7.483E+01  -7.354E+02  -3.382E+02  -1.343E+01  -9.628E+02  -4.398E+01  +1.766E+03
  +3.82E+04  +6.13E+05  +1.08E+05  -7.483E+01  -7.354E+02  -3.382E+02  -1.343E+01  -9.628E+02  -4.398E+01  +1.766E+03

element # = 1373     type =4-n tetrahedron
 XX         YY         ZZ         SIGXX       SIGYY       SIGZZ       TAUXY       TAUYZ       TAUZX       SIGV
  +1.58E+05  +4.71E+04  +1.48E+05  +2.775E+03  +1.502E+04  +3.250E+03  -5.901E+02  -2.989E+02  -1.028E+03  +1.220E+04
  +1.85E+05  +4.63E+04  +1.43E+05  +2.775E+03  +1.502E+04  +3.250E+03  -5.901E+02  -2.989E+02  -1.028E+03  +1.220E+04
  +1.85E+05  +3.97E+04  +1.21E+05  +2.775E+03  +1.502E+04  +3.250E+03  -5.901E+02  -2.989E+02  -1.028E+03  +1.220E+04
  +1.62E+05  +2.14E+04  +1.43E+05  +2.775E+03  +1.502E+04  +3.250E+03  -5.901E+02  -2.989E+02  -1.028E+03  +1.220E+04

element # = 1374     type =4-n tetrahedron
 XX         YY         ZZ         SIGXX       SIGYY       SIGZZ       TAUXY       TAUYZ       TAUZX       SIGV
  +6.91E+03  +4.51E+05  +2.94E+04  -7.473E+02  -9.814E+03  -2.998E+02  +1.401E+02  -1.217E+03  +4.589E+02  +9.570E+03
  +2.93E+04  +4.52E+05  +6.93E+03  -7.473E+02  -9.814E+03  -2.998E+02  +1.401E+02  -1.217E+03  +4.589E+02  +9.570E+03
  +6.91E+03  +4.63E+05  +6.93E+03  -7.473E+02  -9.814E+03  -2.998E+02  +1.401E+02  -1.217E+03  +4.589E+02  +9.570E+03
  +6.91E+03  +4.41E+05  +6.93E+03  -7.473E+02  -9.814E+03  -2.998E+02  +1.401E+02  -1.217E+03  +4.589E+02  +9.570E+03

element # = 1375     type =4-n tetrahedron
 XX         YY         ZZ         SIGXX       SIGYY       SIGZZ       TAUXY       TAUYZ       TAUZX       SIGV
  +1.09E+04  +5.23E+04  +1.62E+04  +2.148E+02  -1.853E+04  +1.654E+03  -5.254E+02  -2.764E+03  +1.002E+02  +2.010E+04
  +2.87E+04  +6.76E+04  +2.99E+04  +2.148E+02  -1.853E+04  +1.654E+03  -5.254E+02  -2.764E+03  +1.002E+02  +2.010E+04
  +2.84E+04  +4.78E+04  +3.13E+04  +2.148E+02  -1.853E+04  +1.654E+03  -5.254E+02  -2.764E+03  +1.002E+02  +2.010E+04
  +1.09E+04  +5.65E+04  +3.96E+04  +2.148E+02  -1.853E+04  +1.654E+03  -5.254E+02  -2.764E+03  +1.002E+02  +2.010E+04

element # = 1376     type =4-n tetrahedron
 XX         YY         ZZ         SIGXX       SIGYY       SIGZZ       TAUXY       TAUYZ       TAUZX       SIGV
  +1.69E+05  +1.43E+04  +1.94E+05  +9.385E+03  +3.501E+04  +1.382E+04  -1.442E+03  -6.698E+03  -1.831E+03  +2.671E+04
  +1.87E+05  +3.56E+04  +1.94E+05  +9.385E+03  +3.501E+04  +1.382E+04  -1.442E+03  -6.698E+03  -1.831E+03  +2.671E+04
  +1.64E+05  +3.93E+04  +1.94E+05  +9.385E+03  +3.501E+04  +1.382E+04  -1.442E+03  -6.698E+03  -1.831E+03  +2.671E+04
  +1.87E+05  +1.43E+04  +1.77E+05  +9.385E+03  +3.501E+04  +1.382E+04  -1.442E+03  -6.698E+03  -1.831E+03  +2.671E+04

element # = 1377     type =4-n tetrahedron
 XX         YY         ZZ         SIGXX       SIGYY       SIGZZ       TAUXY       TAUYZ       TAUZX       SIGV
  +1.93E+05  +4.33E+04  +1.87E+05  -1.459E+03  +1.563E+04  -3.347E+03  -1.809E+03  +9.468E+02  -1.774E+03  +1.871E+04
  +1.93E+05  +4.70E+04  +1.64E+05  -1.459E+03  +1.563E+04  -3.347E+03  -1.809E+03  +9.468E+02  -1.774E+03  +1.871E+04
  +1.69E+05  +4.70E+04  +1.87E+05  -1.459E+03  +1.563E+04  -3.347E+03  -1.809E+03  +9.468E+02  -1.774E+03  +1.871E+04
  +1.93E+05  +2.20E+04  +1.69E+05  -1.459E+03  +1.563E+04  -3.347E+03  -1.809E+03  +9.468E+02  -1.774E+03  +1.871E+04

element # = 1378     type =4-n tetrahedron
 XX         YY         ZZ         SIGXX       SIGYY       SIGZZ       TAUXY       TAUYZ       TAUZX       SIGV
  +1.22E+04  +5.69E+03  +5.24E+04  -3.544E+03  -8.269E+03  -3.544E+03  -9.437E+02  -3.343E+03  +0.000E+00  +7.651E+03
  +2.87E+04  +2.41E+04  +6.94E+04  -3.544E+03  -8.269E+03  -3.544E+03  -9.437E+02  -3.343E+03  +0.000E+00  +7.651E+03
  +3.53E+04  +5.69E+03  +5.76E+04  -3.544E+03  -8.269E+03  -3.544E+03  -9.437E+02  -3.343E+03  +0.000E+00  +7.651E+03
  +1.22E+04  +5.69E+03  +7.03E+04  -3.544E+03  -8.269E+03  -3.544E+03  -9.437E+02  -3.343E+03  +0.000E+00  +7.651E+03

element # = 1379     type =4-n tetrahedron
 XX         YY         ZZ         SIGXX       SIGYY       SIGZZ       TAUXY       TAUYZ       TAUZX       SIGV
  +1.83E+05  +5.62E+05  +8.15E+04  -2.868E+02  -2.920E+03  -1.069E+03  -7.605E+01  -9.902E+02  -1.070E+02  +2.912E+03
  +1.56E+05  +5.68E+05  +6.02E+04  -2.868E+02  -2.920E+03  -1.069E+03  -7.605E+01  -9.902E+02  -1.070E+02  +2.912E+03
  +1.55E+05  +5.36E+05  +6.51E+04  -2.868E+02  -2.920E+03  -1.069E+03  -7.605E+01  -9.902E+02  -1.070E+02  +2.912E+03
  +1.83E+05  +5.51E+05  +5.91E+04  -2.868E+02  -2.920E+03  -1.069E+03  -7.605E+01  -9.902E+02  -1.070E+02  +2.912E+03

element # = 1380     type =4-n tetrahedron
 XX         YY         ZZ         SIGXX       SIGYY       SIGZZ       TAUXY       TAUYZ       TAUZX       SIGV
  +7.03E+04  +3.55E+04  +1.64E+05  +4.515E+03  +1.877E+04  +7.524E+03  +2.277E+02  -4.764E+03  +3.364E+02  +1.543E+04
  +7.03E+04  +1.20E+04  +1.83E+05  +4.515E+03  +1.877E+04  +7.524E+03  +2.277E+02  -4.764E+03  +3.364E+02  +1.543E+04
  +5.76E+04  +1.20E+04  +1.60E+05  +4.515E+03  +1.877E+04  +7.524E+03  +2.277E+02  -4.764E+03  +3.364E+02  +1.543E+04
  +5.17E+04  +2.71E+04  +1.69E+05  +4.515E+03  +1.877E+04  +7.524E+03  +2.277E+02  -4.764E+03  +3.364E+02  +1.543E+04

element # = 1381     type =4-n tetrahedron
 XX         YY         ZZ         SIGXX       SIGYY       SIGZZ       TAUXY       TAUYZ       TAUZX       SIGV
  +9.30E+04  +6.47E+03  +1.40E+05  -2.101E+02  -4.902E+02  -2.101E+02  +1.686E+02  -3.308E+03  +0.000E+00  +5.744E+03
  +9.21E+04  +2.74E+04  +1.15E+05  -2.101E+02  -4.902E+02  -2.101E+02  +1.686E+02  -3.308E+03  +0.000E+00  +5.744E+03
  +7.14E+04  +6.47E+03  +1.36E+05  -2.101E+02  -4.902E+02  -2.101E+02  +1.686E+02  -3.308E+03  +0.000E+00  +5.744E+03
  +9.30E+04  +6.47E+03  +1.15E+05  -2.101E+02  -4.902E+02  -2.101E+02  +1.686E+02  -3.308E+03  +0.000E+00  +5.744E+03

element # = 1382     type =4-n tetrahedron
 XX         YY         ZZ         SIGXX       SIGYY       SIGZZ       TAUXY       TAUYZ       TAUZX       SIGV
  +1.78E+05  +4.18E+05  +3.68E+04  -2.023E+03  -1.169E+04  -1.588E+03  -1.373E+03  -5.928E+02  -1.472E+02  +1.023E+04
  +1.56E+05  +4.39E+05  +1.44E+04  -2.023E+03  -1.169E+04  -1.588E+03  -1.373E+03  -5.928E+02  -1.472E+02  +1.023E+04
  +1.52E+05  +4.40E+05  +3.86E+04  -2.023E+03  -1.169E+04  -1.588E+03  -1.373E+03  -5.928E+02  -1.472E+02  +1.023E+04
  +1.56E+05  +4.18E+05  +1.44E+04  -2.023E+03  -1.169E+04  -1.588E+03  -1.373E+03  -5.928E+02  -1.472E+02  +1.023E+04

element # = 1383     type =4-n tetrahedron
 XX         YY         ZZ         SIGXX       SIGYY       SIGZZ       TAUXY       TAUYZ       TAUZX       SIGV
  +1.78E+05  +5.70E+05  +1.92E+05  +2.730E+02  +6.389E+03  -2.937E+02  +1.664E+02  -1.044E+03  +3.922E+02  +6.709E+03
  +1.54E+05  +5.65E+05  +1.66E+05  +2.730E+02  +6.389E+03  -2.937E+02  +1.664E+02  -1.044E+03  +3.922E+02  +6.709E+03
  +1.56E+05  +5.81E+05  +1.92E+05  +2.730E+02  +6.389E+03  -2.937E+02  +1.664E+02  -1.044E+03  +3.922E+02  +6.709E+03
  +1.56E+05  +5.59E+05  +1.92E+05  +2.730E+02  +6.389E+03  -2.937E+02  +1.664E+02  -1.044E+03  +3.922E+02  +6.709E+03

element # = 1384     type =4-n tetrahedron
 XX         YY         ZZ         SIGXX       SIGYY       SIGZZ       TAUXY       TAUYZ       TAUZX       SIGV
  +4.51E+04  +3.64E+04  +1.40E+05  +9.320E+02  +1.246E+04  +1.423E+03  +1.679E+03  -1.195E+03  -1.460E+02  +1.185E+04
  +6.43E+04  +4.13E+04  +1.53E+05  +9.320E+02  +1.246E+04  +1.423E+03  +1.679E+03  -1.195E+03  -1.460E+02  +1.185E+04
  +5.17E+04  +1.77E+04  +1.50E+05  +9.320E+02  +1.246E+04  +1.423E+03  +1.679E+03  -1.195E+03  -1.460E+02  +1.185E+04
  +4.57E+04  +3.29E+04  +1.59E+05  +9.320E+02  +1.246E+04  +1.423E+03  +1.679E+03  -1.195E+03  -1.460E+02  +1.185E+04

element # = 1385     type =4-n tetrahedron
 XX         YY         ZZ         SIGXX       SIGYY       SIGZZ       TAUXY       TAUYZ       TAUZX       SIGV
  +1.93E+05  +8.45E+05  +1.93E+05  +6.233E+01  +8.631E+02  -3.751E+02  +7.674E+01  -2.827E+02  -4.464E+01  +1.203E+03
  +1.93E+05  +8.23E+05  +1.93E+05  +6.233E+01  +8.631E+02  -3.751E+02  +7.674E+01  -2.827E+02  -4.464E+01  +1.203E+03
  +1.93E+05  +8.35E+05  +1.71E+05  +6.233E+01  +8.631E+02  -3.751E+02  +7.674E+01  -2.827E+02  -4.464E+01  +1.203E+03
  +1.71E+05  +8.35E+05  +1.93E+05  +6.233E+01  +8.631E+02  -3.751E+02  +7.674E+01  -2.827E+02  -4.464E+01  +1.203E+03

element # = 1386     type =4-n tetrahedron
 XX         YY         ZZ         SIGXX       SIGYY       SIGZZ       TAUXY       TAUYZ       TAUZX       SIGV
  +1.86E+05  +4.90E+05  +1.71E+05  +9.269E+02  +8.735E+03  +8.318E+02  +8.045E+01  -2.321E+02  -1.148E+02  +7.870E+03
  +1.64E+05  +4.69E+05  +1.93E+05  +9.269E+02  +8.735E+03  +8.318E+02  +8.045E+01  -2.321E+02  -1.148E+02  +7.870E+03
  +1.64E+05  +4.90E+05  +1.93E+05  +9.269E+02  +8.735E+03  +8.318E+02  +8.045E+01  -2.321E+02  -1.148E+02  +7.870E+03
  +1.86E+05  +4.79E+05  +1.93E+05  +9.269E+02  +8.735E+03  +8.318E+02  +8.045E+01  -2.321E+02  -1.148E+02  +7.870E+03

element # = 1387     type =4-n tetrahedron
 XX         YY         ZZ         SIGXX       SIGYY       SIGZZ       TAUXY       TAUYZ       TAUZX       SIGV
  +1.22E+05  +1.26E+05  +1.64E+05  +1.508E+03  +2.571E+04  +7.295E+02  +8.587E+02  +3.242E+02  +1.169E+03  +2.473E+04
  +1.10E+05  +1.05E+05  +1.91E+05  +1.508E+03  +2.571E+04  +7.295E+02  +8.587E+02  +3.242E+02  +1.169E+03  +2.473E+04
  +1.10E+05  +1.27E+05  +1.91E+05  +1.508E+03  +2.571E+04  +7.295E+02  +8.587E+02  +3.242E+02  +1.169E+03  +2.473E+04
  +1.33E+05  +1.16E+05  +1.91E+05  +1.508E+03  +2.571E+04  +7.295E+02  +8.587E+02  +3.242E+02  +1.169E+03  +2.473E+04

element # = 1388     type =4-n tetrahedron
 XX         YY         ZZ         SIGXX       SIGYY       SIGZZ       TAUXY       TAUYZ       TAUZX       SIGV
  +1.93E+05  +8.04E+05  +1.64E+05  -5.178E+01  +5.581E+02  -5.180E+02  +4.520E+01  -3.415E+02  -4.346E+01  +1.111E+03
  +1.71E+05  +8.26E+05  +1.86E+05  -5.178E+01  +5.581E+02  -5.180E+02  +4.520E+01  -3.415E+02  -4.346E+01  +1.111E+03
  +1.93E+05  +8.26E+05  +1.64E+05  -5.178E+01  +5.581E+02  -5.180E+02  +4.520E+01  -3.415E+02  -4.346E+01  +1.111E+03
  +1.93E+05  +8.14E+05  +1.86E+05  -5.178E+01  +5.581E+02  -5.180E+02  +4.520E+01  -3.415E+02  -4.346E+01  +1.111E+03

element # = 1389     type =4-n tetrahedron
 XX         YY         ZZ         SIGXX       SIGYY       SIGZZ       TAUXY       TAUYZ       TAUZX       SIGV
  +1.92E+05  +3.20E+05  +1.12E+05  -2.798E+03  -2.145E+03  -5.819E+02  -2.422E+02  -2.896E+03  -1.498E+03  +5.996E+03
  +1.92E+05  +3.10E+05  +1.35E+05  -2.798E+03  -2.145E+03  -5.819E+02  -2.422E+02  -2.896E+03  -1.498E+03  +5.996E+03
  +1.92E+05  +2.99E+05  +1.12E+05  -2.798E+03  -2.145E+03  -5.819E+02  -2.422E+02  -2.896E+03  -1.498E+03  +5.996E+03
  +1.68E+05  +3.12E+05  +1.30E+05  -2.798E+03  -2.145E+03  -5.819E+02  -2.422E+02  -2.896E+03  -1.498E+03  +5.996E+03

element # = 1390     type =4-n tetrahedron
 XX         YY         ZZ         SIGXX       SIGYY       SIGZZ       TAUXY       TAUYZ       TAUZX       SIGV
  +1.53E+05  +6.68E+05  +3.30E+04  -1.770E+02  -4.045E+03  -9.323E+01  -1.390E+02  -5.799E+02  +2.648E+02  +4.070E+03
  +1.78E+05  +6.67E+05  +7.79E+03  -1.770E+02  -4.045E+03  -9.323E+01  -1.390E+02  -5.799E+02  +2.648E+02  +4.070E+03
  +1.56E+05  +6.78E+05  +7.79E+03  -1.770E+02  -4.045E+03  -9.323E+01  -1.390E+02  -5.799E+02  +2.648E+02  +4.070E+03
  +1.56E+05  +6.57E+05  +7.79E+03  -1.770E+02  -4.045E+03  -9.323E+01  -1.390E+02  -5.799E+02  +2.648E+02  +4.070E+03

element # = 1391     type =4-n tetrahedron
 XX         YY         ZZ         SIGXX       SIGYY       SIGZZ       TAUXY       TAUYZ       TAUZX       SIGV
  +1.93E+05  +1.34E+04  +7.50E+04  +1.159E+03  -6.092E+03  +3.818E+02  -1.442E+03  +5.409E+02  -2.404E+03  +8.485E+03
  +1.70E+05  +1.34E+04  +6.24E+04  +1.159E+03  -6.092E+03  +3.818E+02  -1.442E+03  +5.409E+02  -2.404E+03  +8.485E+03
  +1.93E+05  +3.84E+04  +6.27E+04  +1.159E+03  -6.092E+03  +3.818E+02  -1.442E+03  +5.409E+02  -2.404E+03  +8.485E+03
  +1.93E+05  +3.17E+04  +8.40E+04  +1.159E+03  -6.092E+03  +3.818E+02  -1.442E+03  +5.409E+02  -2.404E+03  +8.485E+03

element # = 1392     type =4-n tetrahedron
 XX         YY         ZZ         SIGXX       SIGYY       SIGZZ       TAUXY       TAUYZ       TAUZX       SIGV
  +5.41E+03  +4.10E+04  +1.74E+04  -2.046E+03  -1.630E+04  -7.338E+02  -2.030E+03  +2.057E+03  +2.554E+03  +1.638E+04
  +5.41E+03  +1.97E+04  +3.53E+04  -2.046E+03  -1.630E+04  -7.338E+02  -2.030E+03  +2.057E+03  +2.554E+03  +1.638E+04
  +5.41E+03  +4.52E+04  +4.08E+04  -2.046E+03  -1.630E+04  -7.338E+02  -2.030E+03  +2.057E+03  +2.554E+03  +1.638E+04
  +2.29E+04  +3.65E+04  +3.26E+04  -2.046E+03  -1.630E+04  -7.338E+02  -2.030E+03  +2.057E+03  +2.554E+03  +1.638E+04

element # = 1393     type =4-n tetrahedron
 XX         YY         ZZ         SIGXX       SIGYY       SIGZZ       TAUXY       TAUYZ       TAUZX       SIGV
  +1.53E+05  +3.37E+04  +1.63E+05  +8.961E+03  +2.091E+04  +8.961E+03  -9.762E+02  -5.437E+03  +0.000E+00  +1.531E+04
  +1.79E+05  +7.96E+03  +1.64E+05  +8.961E+03  +2.091E+04  +8.961E+03  -9.762E+02  -5.437E+03  +0.000E+00  +1.531E+04
  +1.56E+05  +7.96E+03  +1.59E+05  +8.961E+03  +2.091E+04  +8.961E+03  -9.762E+02  -5.437E+03  +0.000E+00  +1.531E+04
  +1.61E+05  +7.96E+03  +1.82E+05  +8.961E+03  +2.091E+04  +8.961E+03  -9.762E+02  -5.437E+03  +0.000E+00  +1.531E+04

element # = 1394     type =4-n tetrahedron
 XX         YY         ZZ         SIGXX       SIGYY       SIGZZ       TAUXY       TAUYZ       TAUZX       SIGV
  +8.69E+04  +5.55E+05  +6.24E+03  -8.479E+01  -5.838E+03  -3.984E+02  -6.627E+01  -1.015E+03  -1.698E+02  +5.881E+03
  +6.68E+04  +5.34E+05  +2.64E+04  -8.479E+01  -5.838E+03  -3.984E+02  -6.627E+01  -1.015E+03  -1.698E+02  +5.881E+03
  +8.69E+04  +5.34E+05  +6.24E+03  -8.479E+01  -5.838E+03  -3.984E+02  -6.627E+01  -1.015E+03  -1.698E+02  +5.881E+03
  +6.45E+04  +5.45E+05  +6.24E+03  -8.479E+01  -5.838E+03  -3.984E+02  -6.627E+01  -1.015E+03  -1.698E+02  +5.881E+03

element # = 1395     type =4-n tetrahedron
 XX         YY         ZZ         SIGXX       SIGYY       SIGZZ       TAUXY       TAUYZ       TAUZX       SIGV
  +1.25E+05  +6.07E+05  +6.46E+04  -1.265E+02  -2.175E+03  -5.031E+02  -4.604E+01  -1.478E+03  -1.489E+02  +3.192E+03
  +1.09E+05  +6.19E+05  +9.49E+04  -1.265E+02  -2.175E+03  -5.031E+02  -4.604E+01  -1.478E+03  -1.489E+02  +3.192E+03
  +9.37E+04  +6.27E+05  +7.21E+04  -1.265E+02  -2.175E+03  -5.031E+02  -4.604E+01  -1.478E+03  -1.489E+02  +3.192E+03
  +1.27E+05  +6.44E+05  +6.64E+04  -1.265E+02  -2.175E+03  -5.031E+02  -4.604E+01  -1.478E+03  -1.489E+02  +3.192E+03

element # = 1396     type =4-n tetrahedron
 XX         YY         ZZ         SIGXX       SIGYY       SIGZZ       TAUXY       TAUYZ       TAUZX       SIGV
  +1.32E+05  +9.93E+05  +1.42E+04  +3.804E+01  -5.444E+00  -3.154E+01  +9.378E+00  -2.975E+01  +6.537E+00  +8.218E+01
  +1.45E+05  +9.93E+05  +3.73E+04  +3.804E+01  -5.444E+00  -3.154E+01  +9.378E+00  -2.975E+01  +6.537E+00  +8.218E+01
  +1.50E+05  +9.93E+05  +1.42E+04  +3.804E+01  -5.444E+00  -3.154E+01  +9.378E+00  -2.975E+01  +6.537E+00  +8.218E+01
  +1.40E+05  +9.69E+05  +3.72E+04  +3.804E+01  -5.444E+00  -3.154E+01  +9.378E+00  -2.975E+01  +6.537E+00  +8.218E+01

element # = 1397     type =4-n tetrahedron
 XX         YY         ZZ         SIGXX       SIGYY       SIGZZ       TAUXY       TAUYZ       TAUZX       SIGV
  +3.60E+04  +5.20E+03  +1.73E+04  -9.266E+03  -2.162E+04  -9.266E+03  -1.955E+03  -4.300E+03  +0.000E+00  +1.482E+04
  +1.81E+04  +5.20E+03  +3.52E+04  -9.266E+03  -2.162E+04  -9.266E+03  -1.955E+03  -4.300E+03  +0.000E+00  +1.482E+04
  +3.56E+04  +2.20E+04  +3.25E+04  -9.266E+03  -2.162E+04  -9.266E+03  -1.955E+03  -4.300E+03  +0.000E+00  +1.482E+04
  +4.12E+04  +5.20E+03  +4.04E+04  -9.266E+03  -2.162E+04  -9.266E+03  -1.955E+03  -4.300E+03  +0.000E+00  +1.482E+04

element # = 1398     type =4-n tetrahedron
 XX         YY         ZZ         SIGXX       SIGYY       SIGZZ       TAUXY       TAUYZ       TAUZX       SIGV
  +1.82E+04  +4.08E+04  +4.68E+03  -3.218E+03  -2.994E+04  -1.167E+03  -2.313E+03  -1.983E+03  -8.693E+02  +2.834E+04
  +3.61E+04  +1.95E+04  +4.68E+03  -3.218E+03  -2.994E+04  -1.167E+03  -2.313E+03  -1.983E+03  -8.693E+02  +2.834E+04
  +3.57E+04  +3.64E+04  +1.98E+04  -3.218E+03  -2.994E+04  -1.167E+03  -2.313E+03  -1.983E+03  -8.693E+02  +2.834E+04
  +4.16E+04  +4.45E+04  +4.68E+03  -3.218E+03  -2.994E+04  -1.167E+03  -2.313E+03  -1.983E+03  -8.693E+02  +2.834E+04

element # = 1399     type =4-n tetrahedron
 XX         YY         ZZ         SIGXX       SIGYY       SIGZZ       TAUXY       TAUYZ       TAUZX       SIGV
  +3.50E+04  +1.71E+05  +1.89E+05  +7.381E+02  +1.751E+04  -6.678E+01  -6.001E+01  -1.632E+03  -2.795E+02  +1.742E+04
  +3.07E+04  +1.81E+05  +1.73E+05  +7.381E+02  +1.751E+04  -6.678E+01  -6.001E+01  -1.632E+03  -2.795E+02  +1.742E+04
  +1.26E+04  +1.83E+05  +1.89E+05  +7.381E+02  +1.751E+04  -6.678E+01  -6.001E+01  -1.632E+03  -2.795E+02  +1.742E+04
  +1.26E+04  +1.72E+05  +1.69E+05  +7.381E+02  +1.751E+04  -6.678E+01  -6.001E+01  -1.632E+03  -2.795E+02  +1.742E+04

element # = 1400     type =4-n tetrahedron
 XX         YY         ZZ         SIGXX       SIGYY       SIGZZ       TAUXY       TAUYZ       TAUZX       SIGV
  +1.09E+04  +1.18E+04  +2.81E+04  -6.273E+03  -2.707E+04  -7.580E+03  -3.387E+02  -2.111E+03  +2.516E+03  +2.097E+04
  +2.88E+04  +1.18E+04  +1.02E+04  -6.273E+03  -2.707E+04  -7.580E+03  -3.387E+02  -2.111E+03  +2.516E+03  +2.097E+04
  +2.85E+04  +2.86E+04  +2.53E+04  -6.273E+03  -2.707E+04  -7.580E+03  -3.387E+02  -2.111E+03  +2.516E+03  +2.097E+04
  +1.09E+04  +3.31E+04  +1.02E+04  -6.273E+03  -2.707E+04  -7.580E+03  -3.387E+02  -2.111E+03  +2.516E+03  +2.097E+04

element # = 1401     type =4-n tetrahedron
 XX         YY         ZZ         SIGXX       SIGYY       SIGZZ       TAUXY       TAUYZ       TAUZX       SIGV
  +1.92E+05  +2.92E+05  +5.80E+04  -1.496E+03  -9.596E+03  -9.893E+02  +6.325E+02  -1.735E+03  -8.408E+02  +9.073E+03
  +1.92E+05  +2.71E+05  +5.80E+04  -1.496E+03  -9.596E+03  -9.893E+02  +6.325E+02  -1.735E+03  -8.408E+02  +9.073E+03
  +1.64E+05  +2.70E+05  +6.12E+04  -1.496E+03  -9.596E+03  -9.893E+02  +6.325E+02  -1.735E+03  -8.408E+02  +9.073E+03
  +1.92E+05  +2.82E+05  +8.03E+04  -1.496E+03  -9.596E+03  -9.893E+02  +6.325E+02  -1.735E+03  -8.408E+02  +9.073E+03

element # = 1402     type =4-n tetrahedron
 XX         YY         ZZ         SIGXX       SIGYY       SIGZZ       TAUXY       TAUYZ       TAUZX       SIGV
  +5.77E+04  +1.28E+05  +1.94E+05  +1.243E+03  +2.390E+04  -8.955E+02  -2.975E+02  -8.538E+02  +8.624E+02  +2.389E+04
  +5.76E+04  +1.50E+05  +1.94E+05  +1.243E+03  +2.390E+04  -8.955E+02  -2.975E+02  -8.538E+02  +8.624E+02  +2.389E+04
  +5.90E+04  +1.40E+05  +1.75E+05  +1.243E+03  +2.390E+04  -8.955E+02  -2.975E+02  -8.538E+02  +8.624E+02  +2.389E+04
  +7.98E+04  +1.39E+05  +1.94E+05  +1.243E+03  +2.390E+04  -8.955E+02  -2.975E+02  -8.538E+02  +8.624E+02  +2.389E+04

element # = 1403     type =4-n tetrahedron
 XX         YY         ZZ         SIGXX       SIGYY       SIGZZ       TAUXY       TAUYZ       TAUZX       SIGV
  +1.63E+05  +6.82E+05  +1.28E+05  -4.178E+02  -2.097E+02  -4.988E+02  +7.068E+01  -1.047E+03  -1.734E+02  +1.860E+03
  +1.91E+05  +6.78E+05  +1.12E+05  -4.178E+02  -2.097E+02  -4.988E+02  +7.068E+01  -1.047E+03  -1.734E+02  +1.860E+03
  +1.91E+05  +6.89E+05  +1.34E+05  -4.178E+02  -2.097E+02  -4.988E+02  +7.068E+01  -1.047E+03  -1.734E+02  +1.860E+03
  +1.91E+05  +7.00E+05  +1.12E+05  -4.178E+02  -2.097E+02  -4.988E+02  +7.068E+01  -1.047E+03  -1.734E+02  +1.860E+03

element # = 1404     type =4-n tetrahedron
 XX         YY         ZZ         SIGXX       SIGYY       SIGZZ       TAUXY       TAUYZ       TAUZX       SIGV
  +2.93E+04  +6.43E+05  +1.93E+05  +3.040E+02  +4.202E+03  -2.347E+02  -1.738E+02  -6.106E+02  +1.486E+02  +4.343E+03
  +6.91E+03  +6.43E+05  +1.71E+05  +3.040E+02  +4.202E+03  -2.347E+02  -1.738E+02  -6.106E+02  +1.486E+02  +4.343E+03
  +6.91E+03  +6.54E+05  +1.93E+05  +3.040E+02  +4.202E+03  -2.347E+02  -1.738E+02  -6.106E+02  +1.486E+02  +4.343E+03
  +6.91E+03  +6.32E+05  +1.93E+05  +3.040E+02  +4.202E+03  -2.347E+02  -1.738E+02  -6.106E+02  +1.486E+02  +4.343E+03

element # = 1405     type =4-n tetrahedron
 XX         YY         ZZ         SIGXX       SIGYY       SIGZZ       TAUXY       TAUYZ       TAUZX       SIGV
  +6.46E+03  +6.06E+05  +1.23E+04  -8.720E+02  -5.350E+03  -3.975E+02  +2.597E+02  -6.415E+02  +1.732E+02  +4.891E+03
  +6.46E+03  +5.85E+05  +1.23E+04  -8.720E+02  -5.350E+03  -3.975E+02  +2.597E+02  -6.415E+02  +1.732E+02  +4.891E+03
  +6.46E+03  +5.95E+05  +3.47E+04  -8.720E+02  -5.350E+03  -3.975E+02  +2.597E+02  -6.415E+02  +1.732E+02  +4.891E+03
  +2.74E+04  +5.95E+05  +2.96E+04  -8.720E+02  -5.350E+03  -3.975E+02  +2.597E+02  -6.415E+02  +1.732E+02  +4.891E+03

element # = 1406     type =4-n tetrahedron
 XX         YY         ZZ         SIGXX       SIGYY       SIGZZ       TAUXY       TAUYZ       TAUZX       SIGV
  +1.80E+05  +5.90E+05  +1.10E+05  -3.543E+02  -9.504E+01  -1.045E+03  +1.948E+01  -8.452E+02  -2.111E+02  +1.732E+03
  +1.80E+05  +6.11E+05  +1.10E+05  -3.543E+02  -9.504E+01  -1.045E+03  +1.948E+01  -8.452E+02  -2.111E+02  +1.732E+03
  +1.58E+05  +6.10E+05  +1.34E+05  -3.543E+02  -9.504E+01  -1.045E+03  +1.948E+01  -8.452E+02  -2.111E+02  +1.732E+03
  +1.37E+05  +6.09E+05  +1.19E+05  -3.543E+02  -9.504E+01  -1.045E+03  +1.948E+01  -8.452E+02  -2.111E+02  +1.732E+03

element # = 1407     type =4-n tetrahedron
 XX         YY         ZZ         SIGXX       SIGYY       SIGZZ       TAUXY       TAUYZ       TAUZX       SIGV
  +1.26E+05  +5.03E+05  +1.66E+05  +1.241E+03  +9.479E+03  +1.241E+03  +3.529E+02  -6.671E+02  -1.461E+02  +8.344E+03
  +1.34E+05  +5.01E+05  +1.92E+05  +1.241E+03  +9.479E+03  +1.241E+03  +3.529E+02  -6.671E+02  -1.461E+02  +8.344E+03
  +1.11E+05  +4.90E+05  +1.92E+05  +1.241E+03  +9.479E+03  +1.241E+03  +3.529E+02  -6.671E+02  -1.461E+02  +8.344E+03
  +1.11E+05  +5.11E+05  +1.92E+05  +1.241E+03  +9.479E+03  +1.241E+03  +3.529E+02  -6.671E+02  -1.461E+02  +8.344E+03

element # = 1408     type =4-n tetrahedron
 XX         YY         ZZ         SIGXX       SIGYY       SIGZZ       TAUXY       TAUYZ       TAUZX       SIGV
  +6.01E+03  +5.71E+05  +8.46E+04  -8.533E+02  -3.075E+03  -6.738E+02  +1.500E+02  -1.568E+03  +3.110E+02  +3.620E+03
  +6.01E+03  +5.60E+05  +6.23E+04  -8.533E+02  -3.075E+03  -6.738E+02  +1.500E+02  -1.568E+03  +3.110E+02  +3.620E+03
  +2.55E+04  +5.71E+05  +7.94E+04  -8.533E+02  -3.075E+03  -6.738E+02  +1.500E+02  -1.568E+03  +3.110E+02  +3.620E+03
  +6.01E+03  +5.82E+05  +6.23E+04  -8.533E+02  -3.075E+03  -6.738E+02  +1.500E+02  -1.568E+03  +3.110E+02  +3.620E+03

element # = 1409     type =4-n tetrahedron
 XX         YY         ZZ         SIGXX       SIGYY       SIGZZ       TAUXY       TAUYZ       TAUZX       SIGV
  +7.43E+03  +3.93E+05  +1.64E+05  +4.465E+02  +7.952E+03  -3.837E+02  -1.365E+02  -1.022E+03  +5.115E+02  +8.199E+03
  +3.15E+04  +3.85E+05  +1.64E+05  +4.465E+02  +7.952E+03  -3.837E+02  -1.365E+02  -1.022E+03  +5.115E+02  +8.199E+03
  +7.43E+03  +3.71E+05  +1.66E+05  +4.465E+02  +7.952E+03  -3.837E+02  -1.365E+02  -1.022E+03  +5.115E+02  +8.199E+03
  +7.43E+03  +3.82E+05  +1.83E+05  +4.465E+02  +7.952E+03  -3.837E+02  -1.365E+02  -1.022E+03  +5.115E+02  +8.199E+03

element # = 1410     type =4-n tetrahedron
 XX         YY         ZZ         SIGXX       SIGYY       SIGZZ       TAUXY       TAUYZ       TAUZX       SIGV
  +1.77E+05  +1.18E+05  +4.72E+04  +3.403E+02  -9.856E+03  +5.418E+02  +5.205E+02  -2.392E+03  +9.178E+02  +1.125E+04
  +1.50E+05  +1.44E+05  +5.40E+04  +3.403E+02  -9.856E+03  +5.418E+02  +5.205E+02  -2.392E+03  +9.178E+02  +1.125E+04
  +1.52E+05  +1.07E+05  +5.22E+04  +3.403E+02  -9.856E+03  +5.418E+02  +5.205E+02  -2.392E+03  +9.178E+02  +1.125E+04
  +1.54E+05  +1.18E+05  +2.46E+04  +3.403E+02  -9.856E+03  +5.418E+02  +5.205E+02  -2.392E+03  +9.178E+02  +1.125E+04

element # = 1411     type =4-n tetrahedron
 XX         YY         ZZ         SIGXX       SIGYY       SIGZZ       TAUXY       TAUYZ       TAUZX       SIGV
  +1.92E+05  +9.14E+04  +2.28E+04  -1.316E+03  -1.102E+04  -2.192E+02  +2.989E+02  -3.190E+02  -2.673E+03  +1.131E+04
  +1.67E+05  +8.86E+04  +5.04E+04  -1.316E+03  -1.102E+04  -2.192E+02  +2.989E+02  -3.190E+02  -2.673E+03  +1.131E+04
  +1.92E+05  +9.95E+04  +4.53E+04  -1.316E+03  -1.102E+04  -2.192E+02  +2.989E+02  -3.190E+02  -2.673E+03  +1.131E+04
  +1.92E+05  +7.38E+04  +4.62E+04  -1.316E+03  -1.102E+04  -2.192E+02  +2.989E+02  -3.190E+02  -2.673E+03  +1.131E+04

element # = 1412     type =4-n tetrahedron
 XX         YY         ZZ         SIGXX       SIGYY       SIGZZ       TAUXY       TAUYZ       TAUZX       SIGV
  +1.60E+05  +9.65E+04  +4.31E+04  -1.552E+03  -2.084E+04  -1.051E+03  -8.945E+01  -1.369E+03  -6.780E+02  +1.972E+04
  +1.85E+05  +9.93E+04  +1.55E+04  -1.552E+03  -2.084E+04  -1.051E+03  -8.945E+01  -1.369E+03  -6.780E+02  +1.972E+04
  +1.85E+05  +1.07E+05  +3.81E+04  -1.552E+03  -2.084E+04  -1.051E+03  -8.945E+01  -1.369E+03  -6.780E+02  +1.972E+04
  +1.63E+05  +1.07E+05  +1.55E+04  -1.552E+03  -2.084E+04  -1.051E+03  -8.945E+01  -1.369E+03  -6.780E+02  +1.972E+04

element # = 1413     type =4-n tetrahedron
 XX         YY         ZZ         SIGXX       SIGYY       SIGZZ       TAUXY       TAUYZ       TAUZX       SIGV
  +9.48E+04  +6.38E+05  +1.26E+05  -1.469E+02  +8.010E+02  -3.406E+02  +3.474E+01  -7.763E+02  +1.360E+02  +1.728E+03
  +7.08E+04  +6.68E+05  +1.22E+05  -1.469E+02  +8.010E+02  -3.406E+02  +3.474E+01  -7.763E+02  +1.360E+02  +1.728E+03
  +1.10E+05  +6.66E+05  +1.34E+05  -1.469E+02  +8.010E+02  -3.406E+02  +3.474E+01  -7.763E+02  +1.360E+02  +1.728E+03
  +7.47E+04  +6.58E+05  +1.43E+05  -1.469E+02  +8.010E+02  -3.406E+02  +3.474E+01  -7.763E+02  +1.360E+02  +1.728E+03

element # = 1414     type =4-n tetrahedron
 XX         YY         ZZ         SIGXX       SIGYY       SIGZZ       TAUXY       TAUYZ       TAUZX       SIGV
  +2.65E+04  +4.02E+05  +9.08E+04  -3.991E+02  -2.148E+03  -3.439E+02  -1.590E+01  -1.574E+03  +5.542E+02  +3.393E+03
  +6.26E+03  +4.09E+05  +9.15E+04  -3.991E+02  -2.148E+03  -3.439E+02  -1.590E+01  -1.574E+03  +5.542E+02  +3.393E+03
  +6.26E+03  +3.86E+05  +8.38E+04  -3.991E+02  -2.148E+03  -3.439E+02  -1.590E+01  -1.574E+03  +5.542E+02  +3.393E+03
  +6.26E+03  +4.00E+05  +6.69E+04  -3.991E+02  -2.148E+03  -3.439E+02  -1.590E+01  -1.574E+03  +5.542E+02  +3.393E+03

element # = 1415     type =4-n tetrahedron
 XX         YY         ZZ         SIGXX       SIGYY       SIGZZ       TAUXY       TAUYZ       TAUZX       SIGV
  +7.97E+04  +8.87E+05  +1.23E+05  -6.074E+01  -4.222E+01  -3.286E+02  +1.384E+01  -3.510E+02  -1.647E+01  +6.694E+02
  +1.18E+05  +8.91E+05  +1.33E+05  -6.074E+01  -4.222E+01  -3.286E+02  +1.384E+01  -3.510E+02  -1.647E+01  +6.694E+02
  +1.06E+05  +9.16E+05  +1.17E+05  -6.074E+01  -4.222E+01  -3.286E+02  +1.384E+01  -3.510E+02  -1.647E+01  +6.694E+02
  +9.00E+04  +8.83E+05  +1.01E+05  -6.074E+01  -4.222E+01  -3.286E+02  +1.384E+01  -3.510E+02  -1.647E+01  +6.694E+02

element # = 1416     type =4-n tetrahedron
 XX         YY         ZZ         SIGXX       SIGYY       SIGZZ       TAUXY       TAUYZ       TAUZX       SIGV
  +4.98E+03  +4.82E+05  +1.39E+05  +3.693E+02  +4.650E+03  -1.017E+02  +3.102E+02  -1.755E+03  +3.693E+02  +5.523E+03
  +2.11E+04  +4.61E+05  +1.24E+05  +3.693E+02  +4.650E+03  -1.017E+02  +3.102E+02  -1.755E+03  +3.693E+02  +5.523E+03
  +4.98E+03  +4.70E+05  +1.17E+05  +3.693E+02  +4.650E+03  -1.017E+02  +3.102E+02  -1.755E+03  +3.693E+02  +5.523E+03
  +4.98E+03  +4.60E+05  +1.39E+05  +3.693E+02  +4.650E+03  -1.017E+02  +3.102E+02  -1.755E+03  +3.693E+02  +5.523E+03

element # = 1417     type =4-n tetrahedron
 XX         YY         ZZ         SIGXX       SIGYY       SIGZZ       TAUXY       TAUYZ       TAUZX       SIGV
  +8.42E+04  +5.72E+05  +8.63E+04  +2.192E+02  -8.511E+02  +5.719E+02  +1.508E+02  -1.111E+03  -1.930E+02  +2.352E+03
  +8.91E+04  +6.01E+05  +1.03E+05  +2.192E+02  -8.511E+02  +5.719E+02  +1.508E+02  -1.111E+03  -1.930E+02  +2.352E+03
  +6.21E+04  +5.82E+05  +8.91E+04  +2.192E+02  -8.511E+02  +5.719E+02  +1.508E+02  -1.111E+03  -1.930E+02  +2.352E+03
  +7.35E+04  +6.08E+05  +8.06E+04  +2.192E+02  -8.511E+02  +5.719E+02  +1.508E+02  -1.111E+03  -1.930E+02  +2.352E+03

element # = 1418     type =4-n tetrahedron
 XX         YY         ZZ         SIGXX       SIGYY       SIGZZ       TAUXY       TAUYZ       TAUZX       SIGV
  +5.34E+03  +5.87E+05  +1.10E+05  -4.682E+02  -3.281E+02  -6.866E+02  +2.175E+02  -1.435E+03  +2.995E+02  +2.585E+03
  +5.34E+03  +6.09E+05  +1.10E+05  -4.682E+02  -3.281E+02  -6.866E+02  +2.175E+02  -1.435E+03  +2.995E+02  +2.585E+03
  +2.26E+04  +6.08E+05  +1.20E+05  -4.682E+02  -3.281E+02  -6.866E+02  +2.175E+02  -1.435E+03  +2.995E+02  +2.585E+03
  +5.34E+03  +5.98E+05  +1.32E+05  -4.682E+02  -3.281E+02  -6.866E+02  +2.175E+02  -1.435E+03  +2.995E+02  +2.585E+03

element # = 1419     type =4-n tetrahedron
 XX         YY         ZZ         SIGXX       SIGYY       SIGZZ       TAUXY       TAUYZ       TAUZX       SIGV
  +7.84E+04  +3.93E+05  +1.68E+05  +2.216E+03  +1.226E+04  +3.403E+02  -1.543E+02  -1.458E+03  +5.614E+00  +1.138E+04
  +1.17E+05  +3.97E+05  +1.63E+05  +2.216E+03  +1.226E+04  +3.403E+02  -1.543E+02  -1.458E+03  +5.614E+00  +1.138E+04
  +9.91E+04  +3.90E+05  +1.87E+05  +2.216E+03  +1.226E+04  +3.403E+02  -1.543E+02  -1.458E+03  +5.614E+00  +1.138E+04
  +9.91E+04  +4.12E+05  +1.87E+05  +2.216E+03  +1.226E+04  +3.403E+02  -1.543E+02  -1.458E+03  +5.614E+00  +1.138E+04

element # = 1420     type =4-n tetrahedron
 XX         YY         ZZ         SIGXX       SIGYY       SIGZZ       TAUXY       TAUYZ       TAUZX       SIGV
  +1.64E+05  +1.31E+05  +6.94E+03  -8.354E+02  -2.192E+04  -7.151E+02  +2.663E+02  -6.375E+02  +9.838E+02  +2.125E+04
  +1.64E+05  +1.54E+05  +6.94E+03  -8.354E+02  -2.192E+04  -7.151E+02  +2.663E+02  -6.375E+02  +9.838E+02  +2.125E+04
  +1.86E+05  +1.45E+05  +6.94E+03  -8.354E+02  -2.192E+04  -7.151E+02  +2.663E+02  -6.375E+02  +9.838E+02  +2.125E+04
  +1.86E+05  +1.54E+05  +2.94E+04  -8.354E+02  -2.192E+04  -7.151E+02  +2.663E+02  -6.375E+02  +9.838E+02  +2.125E+04

element # = 1421     type =4-n tetrahedron
 XX         YY         ZZ         SIGXX       SIGYY       SIGZZ       TAUXY       TAUYZ       TAUZX       SIGV
  +4.30E+04  +5.07E+05  +1.35E+05  +3.367E+02  +5.056E+03  -1.605E+02  +1.072E+02  -1.368E+03  -3.956E+02  +5.566E+03
  +4.75E+04  +4.93E+05  +1.54E+05  +3.367E+02  +5.056E+03  -1.605E+02  +1.072E+02  -1.368E+03  -3.956E+02  +5.566E+03
  +2.07E+04  +5.02E+05  +1.49E+05  +3.367E+02  +5.056E+03  -1.605E+02  +1.072E+02  -1.368E+03  -3.956E+02  +5.566E+03
  +3.85E+04  +5.14E+05  +1.56E+05  +3.367E+02  +5.056E+03  -1.605E+02  +1.072E+02  -1.368E+03  -3.956E+02  +5.566E+03

element # = 1422     type =4-n tetrahedron
 XX         YY         ZZ         SIGXX       SIGYY       SIGZZ       TAUXY       TAUYZ       TAUZX       SIGV
  +8.31E+04  +5.64E+05  +1.85E+05  -1.305E+02  +3.939E+03  -8.013E+02  +4.851E+01  -6.012E+02  +2.764E+02  +4.590E+03
  +7.64E+04  +5.52E+05  +1.61E+05  -1.305E+02  +3.939E+03  -8.013E+02  +4.851E+01  -6.012E+02  +2.764E+02  +4.590E+03
  +5.76E+04  +5.63E+05  +1.61E+05  -1.305E+02  +3.939E+03  -8.013E+02  +4.851E+01  -6.012E+02  +2.764E+02  +4.590E+03
  +6.08E+04  +5.54E+05  +1.85E+05  -1.305E+02  +3.939E+03  -8.013E+02  +4.851E+01  -6.012E+02  +2.764E+02  +4.590E+03

element # = 1423     type =4-n tetrahedron
 XX         YY         ZZ         SIGXX       SIGYY       SIGZZ       TAUXY       TAUYZ       TAUZX       SIGV
  +4.28E+04  +4.92E+05  +1.08E+05  +2.911E+02  +1.473E+03  -8.795E+02  -1.487E+02  -1.811E+03  -3.634E+02  +3.801E+03
  +4.83E+04  +4.73E+05  +8.36E+04  +2.911E+02  +1.473E+03  -8.795E+02  -1.487E+02  -1.811E+03  -3.634E+02  +3.801E+03
  +2.05E+04  +4.75E+05  +1.00E+05  +2.911E+02  +1.473E+03  -8.795E+02  -1.487E+02  -1.811E+03  -3.634E+02  +3.801E+03
  +3.66E+04  +4.65E+05  +1.08E+05  +2.911E+02  +1.473E+03  -8.795E+02  -1.487E+02  -1.811E+03  -3.634E+02  +3.801E+03

element # = 1424     type =4-n tetrahedron
 XX         YY         ZZ         SIGXX       SIGYY       SIGZZ       TAUXY       TAUYZ       TAUZX       SIGV
  +2.97E+04  +4.56E+05  +9.81E+04  -5.601E+01  -1.759E+03  -7.150E+02  +1.715E+01  -1.481E+03  +2.857E+02  +3.006E+03
  +1.36E+04  +4.56E+05  +6.82E+04  -5.601E+01  -1.759E+03  -7.150E+02  +1.715E+01  -1.481E+03  +2.857E+02  +3.006E+03
  +4.14E+04  +4.64E+05  +7.41E+04  -5.601E+01  -1.759E+03  -7.150E+02  +1.715E+01  -1.481E+03  +2.857E+02  +3.006E+03
  +1.36E+04  +4.66E+05  +9.08E+04  -5.601E+01  -1.759E+03  -7.150E+02  +1.715E+01  -1.481E+03  +2.857E+02  +3.006E+03

element # = 1425     type =4-n tetrahedron
 XX         YY         ZZ         SIGXX       SIGYY       SIGZZ       TAUXY       TAUYZ       TAUZX       SIGV
  +1.19E+04  +4.90E+05  +1.34E+05  -1.321E+02  +1.415E+03  -8.788E+02  -2.789E+02  -1.430E+03  -1.056E+01  +3.236E+03
  +2.80E+04  +4.69E+05  +1.20E+05  -1.321E+02  +1.415E+03  -8.788E+02  -2.789E+02  -1.430E+03  -1.056E+01  +3.236E+03
  +3.42E+04  +4.96E+05  +1.20E+05  -1.321E+02  +1.415E+03  -8.788E+02  -2.789E+02  -1.430E+03  -1.056E+01  +3.236E+03
  +1.19E+04  +4.79E+05  +1.12E+05  -1.321E+02  +1.415E+03  -8.788E+02  -2.789E+02  -1.430E+03  -1.056E+01  +3.236E+03

element # = 1426     type =4-n tetrahedron
 XX         YY         ZZ         SIGXX       SIGYY       SIGZZ       TAUXY       TAUYZ       TAUZX       SIGV
  +4.98E+03  +4.36E+05  +1.11E+05  -1.036E+03  -6.434E+01  -1.369E+03  +9.560E+01  -1.901E+03  +7.330E+02  +3.723E+03
  +4.98E+03  +4.50E+05  +1.33E+05  -1.036E+03  -6.434E+01  -1.369E+03  +9.560E+01  -1.901E+03  +7.330E+02  +3.723E+03
  +4.98E+03  +4.59E+05  +1.10E+05  -1.036E+03  -6.434E+01  -1.369E+03  +9.560E+01  -1.901E+03  +7.330E+02  +3.723E+03
  +2.11E+04  +4.50E+05  +1.17E+05  -1.036E+03  -6.434E+01  -1.369E+03  +9.560E+01  -1.901E+03  +7.330E+02  +3.723E+03

element # = 1427     type =4-n tetrahedron
 XX         YY         ZZ         SIGXX       SIGYY       SIGZZ       TAUXY       TAUYZ       TAUZX       SIGV
  +6.90E+03  +5.11E+05  +1.10E+05  -7.582E+02  -9.991E+02  -8.538E+02  +1.548E+02  -1.663E+03  +4.154E+02  +2.988E+03
  +2.92E+04  +5.06E+05  +1.18E+05  -7.582E+02  -9.991E+02  -8.538E+02  +1.548E+02  -1.663E+03  +4.154E+02  +2.988E+03
  +6.90E+03  +4.88E+05  +1.10E+05  -7.582E+02  -9.991E+02  -8.538E+02  +1.548E+02  -1.663E+03  +4.154E+02  +2.988E+03
  +6.90E+03  +5.00E+05  +1.32E+05  -7.582E+02  -9.991E+02  -8.538E+02  +1.548E+02  -1.663E+03  +4.154E+02  +2.988E+03

element # = 1428     type =4-n tetrahedron
 XX         YY         ZZ         SIGXX       SIGYY       SIGZZ       TAUXY       TAUYZ       TAUZX       SIGV
  +5.56E+04  +2.35E+05  +1.45E+05  +5.613E+02  +9.280E+03  +8.119E+02  +6.651E+01  -2.180E+03  -2.713E+02  +9.401E+03
  +7.65E+04  +2.59E+05  +1.42E+05  +5.613E+02  +9.280E+03  +8.119E+02  +6.651E+01  -2.180E+03  -2.713E+02  +9.401E+03
  +5.74E+04  +2.42E+05  +1.22E+05  +5.613E+02  +9.280E+03  +8.119E+02  +6.651E+01  -2.180E+03  -2.713E+02  +9.401E+03
  +7.68E+04  +2.23E+05  +1.42E+05  +5.613E+02  +9.280E+03  +8.119E+02  +6.651E+01  -2.180E+03  -2.713E+02  +9.401E+03

element # = 1429     type =4-n tetrahedron
 XX         YY         ZZ         SIGXX       SIGYY       SIGZZ       TAUXY       TAUYZ       TAUZX       SIGV
  +6.36E+03  +2.51E+05  +1.19E+05  +2.869E+02  +2.657E+03  -1.835E+02  -5.111E+02  -3.186E+03  +5.906E+02  +6.264E+03
  +6.36E+03  +2.74E+05  +1.21E+05  +2.869E+02  +2.657E+03  -1.835E+02  -5.111E+02  -3.186E+03  +5.906E+02  +6.264E+03
  +2.69E+04  +2.53E+05  +1.14E+05  +2.869E+02  +2.657E+03  -1.835E+02  -5.111E+02  -3.186E+03  +5.906E+02  +6.264E+03
  +6.36E+03  +2.61E+05  +1.39E+05  +2.869E+02  +2.657E+03  -1.835E+02  -5.111E+02  -3.186E+03  +5.906E+02  +6.264E+03

element # = 1430     type =4-n tetrahedron
 XX         YY         ZZ         SIGXX       SIGYY       SIGZZ       TAUXY       TAUYZ       TAUZX       SIGV
  +1.12E+04  +7.24E+04  +5.15E+04  +1.831E+02  -1.228E+04  +4.878E+02  -5.974E+02  -3.137E+03  +3.209E+02  +1.378E+04
  +2.98E+04  +8.46E+04  +5.96E+04  +1.831E+02  -1.228E+04  +4.878E+02  -5.974E+02  -3.137E+03  +3.209E+02  +1.378E+04
  +1.12E+04  +9.87E+04  +5.05E+04  +1.831E+02  -1.228E+04  +4.878E+02  -5.974E+02  -3.137E+03  +3.209E+02  +1.378E+04
  +2.90E+04  +8.34E+04  +4.19E+04  +1.831E+02  -1.228E+04  +4.878E+02  -5.974E+02  -3.137E+03  +3.209E+02  +1.378E+04

element # = 1431     type =4-n tetrahedron
 XX         YY         ZZ         SIGXX       SIGYY       SIGZZ       TAUXY       TAUYZ       TAUZX       SIGV
  +4.07E+04  +5.26E+05  +1.33E+05  +3.920E+01  +2.317E+03  -4.284E+02  -4.057E+01  -1.740E+03  -2.474E+02  +3.968E+03
  +1.83E+04  +5.42E+05  +1.47E+05  +3.920E+01  +2.317E+03  -4.284E+02  -4.057E+01  -1.740E+03  -2.474E+02  +3.968E+03
  +3.75E+04  +5.52E+05  +1.45E+05  +3.920E+01  +2.317E+03  -4.284E+02  -4.057E+01  -1.740E+03  -2.474E+02  +3.968E+03
  +3.61E+04  +5.33E+05  +1.54E+05  +3.920E+01  +2.317E+03  -4.284E+02  -4.057E+01  -1.740E+03  -2.474E+02  +3.968E+03

element # = 1432     type =4-n tetrahedron
 XX         YY         ZZ         SIGXX       SIGYY       SIGZZ       TAUXY       TAUYZ       TAUZX       SIGV
  +1.86E+05  +6.36E+05  +1.64E+05  +2.196E+02  +3.616E+03  -2.291E+02  +2.009E+01  -6.395E+02  -1.601E+02  +3.817E+03
  +1.86E+05  +6.25E+05  +1.87E+05  +2.196E+02  +3.616E+03  -2.291E+02  +2.009E+01  -6.395E+02  -1.601E+02  +3.817E+03
  +1.65E+05  +6.23E+05  +1.66E+05  +2.196E+02  +3.616E+03  -2.291E+02  +2.009E+01  -6.395E+02  -1.601E+02  +3.817E+03
  +1.64E+05  +6.36E+05  +1.87E+05  +2.196E+02  +3.616E+03  -2.291E+02  +2.009E+01  -6.395E+02  -1.601E+02  +3.817E+03

element # = 1433     type =4-n tetrahedron
 XX         YY         ZZ         SIGXX       SIGYY       SIGZZ       TAUXY       TAUYZ       TAUZX       SIGV
  +1.43E+05  +6.05E+05  +6.89E+04  -5.947E+02  -2.190E+03  -8.181E+01  -2.474E+01  -1.501E+03  +1.168E+02  +3.229E+03
  +1.70E+05  +6.21E+05  +9.02E+04  -5.947E+02  -2.190E+03  -8.181E+01  -2.474E+01  -1.501E+03  +1.168E+02  +3.229E+03
  +1.27E+05  +6.18E+05  +9.91E+04  -5.947E+02  -2.190E+03  -8.181E+01  -2.474E+01  -1.501E+03  +1.168E+02  +3.229E+03
  +1.45E+05  +6.43E+05  +7.07E+04  -5.947E+02  -2.190E+03  -8.181E+01  -2.474E+01  -1.501E+03  +1.168E+02  +3.229E+03

element # = 1434     type =4-n tetrahedron
 XX         YY         ZZ         SIGXX       SIGYY       SIGZZ       TAUXY       TAUYZ       TAUZX       SIGV
  +1.78E+05  +6.44E+05  +1.56E+05  +2.908E+02  +2.385E+03  -3.153E+02  +2.506E+01  -5.081E+02  +1.200E+02  +2.616E+03
  +1.56E+05  +6.31E+05  +1.57E+05  +2.908E+02  +2.385E+03  -3.153E+02  +2.506E+01  -5.081E+02  +1.200E+02  +2.616E+03
  +1.50E+05  +6.59E+05  +1.49E+05  +2.908E+02  +2.385E+03  -3.153E+02  +2.506E+01  -5.081E+02  +1.200E+02  +2.616E+03
  +1.55E+05  +6.44E+05  +1.78E+05  +2.908E+02  +2.385E+03  -3.153E+02  +2.506E+01  -5.081E+02  +1.200E+02  +2.616E+03

element # = 1435     type =4-n tetrahedron
 XX         YY         ZZ         SIGXX       SIGYY       SIGZZ       TAUXY       TAUYZ       TAUZX       SIGV
  +9.00E+04  +6.21E+05  +1.42E+05  -3.788E+02  +2.079E+03  -7.306E+02  +6.754E+01  -1.131E+03  -1.803E+01  +3.299E+03
  +8.84E+04  +6.23E+05  +1.78E+05  -3.788E+02  +2.079E+03  -7.306E+02  +6.754E+01  -1.131E+03  -1.803E+01  +3.299E+03
  +6.74E+04  +6.21E+05  +1.62E+05  -3.788E+02  +2.079E+03  -7.306E+02  +6.754E+01  -1.131E+03  -1.803E+01  +3.299E+03
  +7.00E+04  +6.41E+05  +1.59E+05  -3.788E+02  +2.079E+03  -7.306E+02  +6.754E+01  -1.131E+03  -1.803E+01  +3.299E+03

element # = 1436     type =4-n tetrahedron
 XX         YY         ZZ         SIGXX       SIGYY       SIGZZ       TAUXY       TAUYZ       TAUZX       SIGV
  +1.06E+05  +2.66E+05  +1.59E+05  -1.165E+03  +9.484E+03  -1.022E+03  +4.555E+02  -1.725E+03  +2.653E+02  +1.103E+04
  +1.33E+05  +2.57E+05  +1.83E+05  -1.165E+03  +9.484E+03  -1.022E+03  +4.555E+02  -1.725E+03  +2.653E+02  +1.103E+04
  +1.30E+05  +2.44E+05  +1.51E+05  -1.165E+03  +9.484E+03  -1.022E+03  +4.555E+02  -1.725E+03  +2.653E+02  +1.103E+04
  +1.11E+05  +2.46E+05  +1.83E+05  -1.165E+03  +9.484E+03  -1.022E+03  +4.555E+02  -1.725E+03  +2.653E+02  +1.103E+04

element # = 1437     type =4-n tetrahedron
 XX         YY         ZZ         SIGXX       SIGYY       SIGZZ       TAUXY       TAUYZ       TAUZX       SIGV
  +6.90E+03  +5.32E+05  +1.39E+05  +1.152E+03  +4.274E+03  +3.320E+02  +4.929E+01  -1.679E+03  +2.820E+02  +4.656E+03
  +6.90E+03  +5.21E+05  +1.17E+05  +1.152E+03  +4.274E+03  +3.320E+02  +4.929E+01  -1.679E+03  +2.820E+02  +4.656E+03
  +6.90E+03  +5.10E+05  +1.39E+05  +1.152E+03  +4.274E+03  +3.320E+02  +4.929E+01  -1.679E+03  +2.820E+02  +4.656E+03
  +2.92E+04  +5.16E+05  +1.25E+05  +1.152E+03  +4.274E+03  +3.320E+02  +4.929E+01  -1.679E+03  +2.820E+02  +4.656E+03

element # = 1438     type =4-n tetrahedron
 XX         YY         ZZ         SIGXX       SIGYY       SIGZZ       TAUXY       TAUYZ       TAUZX       SIGV
  +1.92E+05  +2.61E+05  +6.49E+04  +3.148E+03  +2.057E+03  +2.437E+03  -2.305E+02  -2.247E+03  -6.581E+02  +4.187E+03
  +1.92E+05  +2.50E+05  +8.72E+04  +3.148E+03  +2.057E+03  +2.437E+03  -2.305E+02  -2.247E+03  -6.581E+02  +4.187E+03
  +1.64E+05  +2.60E+05  +6.81E+04  +3.148E+03  +2.057E+03  +2.437E+03  -2.305E+02  -2.247E+03  -6.581E+02  +4.187E+03
  +1.92E+05  +2.72E+05  +8.72E+04  +3.148E+03  +2.057E+03  +2.437E+03  -2.305E+02  -2.247E+03  -6.581E+02  +4.187E+03

element # = 1439     type =4-n tetrahedron
 XX         YY         ZZ         SIGXX       SIGYY       SIGZZ       TAUXY       TAUYZ       TAUZX       SIGV
  +5.05E+03  +3.58E+05  +1.46E+05  -3.092E+02  +2.970E+03  -6.115E+02  -8.622E+01  -2.130E+03  +6.811E+02  +5.183E+03
  +2.14E+04  +3.59E+05  +1.29E+05  -3.092E+02  +2.970E+03  -6.115E+02  -8.622E+01  -2.130E+03  +6.811E+02  +5.183E+03
  +5.05E+03  +3.67E+05  +1.30E+05  -3.092E+02  +2.970E+03  -6.115E+02  -8.622E+01  -2.130E+03  +6.811E+02  +5.183E+03
  +5.05E+03  +3.49E+05  +1.28E+05  -3.092E+02  +2.970E+03  -6.115E+02  -8.622E+01  -2.130E+03  +6.811E+02  +5.183E+03

element # = 1440     type =4-n tetrahedron
 XX         YY         ZZ         SIGXX       SIGYY       SIGZZ       TAUXY       TAUYZ       TAUZX       SIGV
  +8.25E+04  +6.26E+05  +1.12E+05  -5.863E+01  +6.207E+02  +4.555E+01  +1.253E+01  -1.557E+03  +1.070E+02  +2.777E+03
  +5.86E+04  +6.56E+05  +1.08E+05  -5.863E+01  +6.207E+02  +4.555E+01  +1.253E+01  -1.557E+03  +1.070E+02  +2.777E+03
  +5.34E+04  +6.27E+05  +1.14E+05  -5.863E+01  +6.207E+02  +4.555E+01  +1.253E+01  -1.557E+03  +1.070E+02  +2.777E+03
  +6.70E+04  +6.33E+05  +8.94E+04  -5.863E+01  +6.207E+02  +4.555E+01  +1.253E+01  -1.557E+03  +1.070E+02  +2.777E+03

element # = 1441     type =4-n tetrahedron
 XX         YY         ZZ         SIGXX       SIGYY       SIGZZ       TAUXY       TAUYZ       TAUZX       SIGV
  +1.54E+05  +2.81E+05  +6.23E+04  -6.118E+02  -6.926E+03  -1.078E+03  -1.277E+02  -2.202E+03  -1.759E+02  +7.199E+03
  +1.81E+05  +3.03E+05  +5.91E+04  -6.118E+02  -6.926E+03  -1.078E+03  -1.277E+02  -2.202E+03  -1.759E+02  +7.199E+03
  +1.81E+05  +2.92E+05  +8.14E+04  -6.118E+02  -6.926E+03  -1.078E+03  -1.277E+02  -2.202E+03  -1.759E+02  +7.199E+03
  +1.47E+05  +3.15E+05  +6.27E+04  -6.118E+02  -6.926E+03  -1.078E+03  -1.277E+02  -2.202E+03  -1.759E+02  +7.199E+03

element # = 1442     type =4-n tetrahedron
 XX         YY         ZZ         SIGXX       SIGYY       SIGZZ       TAUXY       TAUYZ       TAUZX       SIGV
  +5.91E+04  +6.31E+05  +5.14E+04  -6.249E+02  -3.179E+03  -3.239E+02  -4.461E+02  -4.669E+02  +1.574E+02  +2.951E+03
  +4.92E+04  +6.15E+05  +3.79E+04  -6.249E+02  -3.179E+03  -3.239E+02  -4.461E+02  -4.669E+02  +1.574E+02  +2.951E+03
  +5.07E+04  +6.37E+05  +2.05E+04  -6.249E+02  -3.179E+03  -3.239E+02  -4.461E+02  -4.669E+02  +1.574E+02  +2.951E+03
  +4.58E+04  +6.44E+05  +3.86E+04  -6.249E+02  -3.179E+03  -3.239E+02  -4.461E+02  -4.669E+02  +1.574E+02  +2.951E+03

element # = 1443     type =4-n tetrahedron
 XX         YY         ZZ         SIGXX       SIGYY       SIGZZ       TAUXY       TAUYZ       TAUZX       SIGV
  +5.60E+03  +9.02E+05  +6.18E+04  -7.210E+01  -2.075E+02  -2.431E+02  +1.899E+01  -3.132E+02  +7.576E+00  +5.657E+02
  +5.60E+03  +9.27E+05  +6.27E+04  -7.210E+01  -2.075E+02  -2.431E+02  +1.899E+01  -3.132E+02  +7.576E+00  +5.657E+02
  +2.37E+04  +9.13E+05  +7.53E+04  -7.210E+01  -2.075E+02  -2.431E+02  +1.899E+01  -3.132E+02  +7.576E+00  +5.657E+02
  +5.60E+03  +9.13E+05  +8.39E+04  -7.210E+01  -2.075E+02  -2.431E+02  +1.899E+01  -3.132E+02  +7.576E+00  +5.657E+02

element # = 1444     type =4-n tetrahedron
 XX         YY         ZZ         SIGXX       SIGYY       SIGZZ       TAUXY       TAUYZ       TAUZX       SIGV
  +8.67E+04  +9.80E+05  +1.02E+05  -8.570E-01  -3.453E-01  -2.469E+02  -2.996E+00  -1.178E+02  +1.130E+01  +3.204E+02
  +6.16E+04  +9.58E+05  +1.14E+05  -8.570E-01  -3.453E-01  -2.469E+02  -2.996E+00  -1.178E+02  +1.130E+01  +3.204E+02
  +9.34E+04  +9.54E+05  +1.09E+05  -8.570E-01  -3.453E-01  -2.469E+02  -2.996E+00  -1.178E+02  +1.130E+01  +3.204E+02
  +6.22E+04  +9.61E+05  +9.23E+04  -8.570E-01  -3.453E-01  -2.469E+02  -2.996E+00  -1.178E+02  +1.130E+01  +3.204E+02

element # = 1445     type =4-n tetrahedron
 XX         YY         ZZ         SIGXX       SIGYY       SIGZZ       TAUXY       TAUYZ       TAUZX       SIGV
  +8.78E+04  +6.02E+05  +1.41E+05  +8.616E+01  +3.037E+03  -5.734E+02  -1.022E+02  -8.770E+02  -3.725E+01  +3.665E+03
  +8.61E+04  +5.83E+05  +1.76E+05  +8.616E+01  +3.037E+03  -5.734E+02  -1.022E+02  -8.770E+02  -3.725E+01  +3.665E+03
  +6.06E+04  +5.82E+05  +1.52E+05  +8.616E+01  +3.037E+03  -5.734E+02  -1.022E+02  -8.770E+02  -3.725E+01  +3.665E+03
  +6.52E+04  +6.02E+05  +1.60E+05  +8.616E+01  +3.037E+03  -5.734E+02  -1.022E+02  -8.770E+02  -3.725E+01  +3.665E+03

element # = 1446     type =4-n tetrahedron
 XX         YY         ZZ         SIGXX       SIGYY       SIGZZ       TAUXY       TAUYZ       TAUZX       SIGV
  +3.48E+04  +5.07E+05  +1.88E+05  -1.836E+02  +5.502E+03  -6.804E+02  -1.911E+02  -8.417E+02  -3.772E+01  +6.135E+03
  +1.24E+04  +5.06E+05  +1.66E+05  -1.836E+02  +5.502E+03  -6.804E+02  -1.911E+02  -8.417E+02  -3.772E+01  +6.135E+03
  +3.02E+04  +5.19E+05  +1.73E+05  -1.836E+02  +5.502E+03  -6.804E+02  -1.911E+02  -8.417E+02  -3.772E+01  +6.135E+03
  +1.24E+04  +5.17E+05  +1.88E+05  -1.836E+02  +5.502E+03  -6.804E+02  -1.911E+02  -8.417E+02  -3.772E+01  +6.135E+03

element # = 1447     type =4-n tetrahedron
 XX         YY         ZZ         SIGXX       SIGYY       SIGZZ       TAUXY       TAUYZ       TAUZX       SIGV
  +1.36E+05  +4.49E+05  +1.72E+05  -4.210E+02  +8.611E+03  -9.406E+02  +1.484E+02  -8.987E+02  -3.171E+02  +9.452E+03
  +1.36E+05  +4.51E+05  +1.93E+05  -4.210E+02  +8.611E+03  -9.406E+02  +1.484E+02  -8.987E+02  -3.171E+02  +9.452E+03
  +1.14E+05  +4.41E+05  +1.93E+05  -4.210E+02  +8.611E+03  -9.406E+02  +1.484E+02  -8.987E+02  -3.171E+02  +9.452E+03
  +1.14E+05  +4.62E+05  +1.93E+05  -4.210E+02  +8.611E+03  -9.406E+02  +1.484E+02  -8.987E+02  -3.171E+02  +9.452E+03

element # = 1448     type =4-n tetrahedron
 XX         YY         ZZ         SIGXX       SIGYY       SIGZZ       TAUXY       TAUYZ       TAUZX       SIGV
  +7.26E+04  +1.34E+05  +1.62E+05  +1.116E+03  +1.727E+04  -3.697E+03  -1.872E+02  +2.029E+02  +9.998E+01  +1.903E+04
  +1.05E+05  +1.32E+05  +1.53E+05  +1.116E+03  +1.727E+04  -3.697E+03  -1.872E+02  +2.029E+02  +9.998E+01  +1.903E+04
  +8.14E+04  +1.17E+05  +1.67E+05  +1.116E+03  +1.727E+04  -3.697E+03  -1.872E+02  +2.029E+02  +9.998E+01  +1.903E+04
  +9.34E+04  +1.33E+05  +1.81E+05  +1.116E+03  +1.727E+04  -3.697E+03  -1.872E+02  +2.029E+02  +9.998E+01  +1.903E+04

element # = 1449     type =4-n tetrahedron
 XX         YY         ZZ         SIGXX       SIGYY       SIGZZ       TAUXY       TAUYZ       TAUZX       SIGV
  +1.71E+05  +4.52E+05  +1.93E+05  +3.053E+02  +9.287E+03  -5.667E+02  +1.645E+02  -1.003E+03  -5.875E+02  +9.664E+03
  +1.93E+05  +4.42E+05  +1.93E+05  +3.053E+02  +9.287E+03  -5.667E+02  +1.645E+02  -1.003E+03  -5.875E+02  +9.664E+03
  +1.93E+05  +4.63E+05  +1.93E+05  +3.053E+02  +9.287E+03  -5.667E+02  +1.645E+02  -1.003E+03  -5.875E+02  +9.664E+03
  +1.93E+05  +4.52E+05  +1.71E+05  +3.053E+02  +9.287E+03  -5.667E+02  +1.645E+02  -1.003E+03  -5.875E+02  +9.664E+03

element # = 1450     type =4-n tetrahedron
 XX         YY         ZZ         SIGXX       SIGYY       SIGZZ       TAUXY       TAUYZ       TAUZX       SIGV
  +1.80E+05  +4.62E+05  +1.10E+05  -1.179E+03  -9.611E+02  -2.299E+03  -6.492E+00  -2.063E+03  -4.962E+02  +3.880E+03
  +1.57E+05  +4.48E+05  +1.33E+05  -1.179E+03  -9.611E+02  -2.299E+03  -6.492E+00  -2.063E+03  -4.962E+02  +3.880E+03
  +1.80E+05  +4.40E+05  +1.10E+05  -1.179E+03  -9.611E+02  -2.299E+03  -6.492E+00  -2.063E+03  -4.962E+02  +3.880E+03
  +1.37E+05  +4.49E+05  +1.18E+05  -1.179E+03  -9.611E+02  -2.299E+03  -6.492E+00  -2.063E+03  -4.962E+02  +3.880E+03

element # = 1451     type =4-n tetrahedron
 XX         YY         ZZ         SIGXX       SIGYY       SIGZZ       TAUXY       TAUYZ       TAUZX       SIGV
  +3.55E+04  +9.53E+05  +1.59E+05  +7.099E+01  +2.087E+02  -3.033E+02  -1.625E+00  -1.745E+02  -2.424E+00  +5.496E+02
  +3.59E+04  +9.48E+05  +1.40E+05  +7.099E+01  +2.087E+02  -3.033E+02  -1.625E+00  -1.745E+02  -2.424E+00  +5.496E+02
  +1.64E+04  +9.44E+05  +1.50E+05  +7.099E+01  +2.087E+02  -3.033E+02  -1.625E+00  -1.745E+02  -2.424E+00  +5.496E+02
  +3.06E+04  +9.32E+05  +1.56E+05  +7.099E+01  +2.087E+02  -3.033E+02  -1.625E+00  -1.745E+02  -2.424E+00  +5.496E+02

element # = 1452     type =4-n tetrahedron
 XX         YY         ZZ         SIGXX       SIGYY       SIGZZ       TAUXY       TAUYZ       TAUZX       SIGV
  +6.42E+04  +8.35E+05  +5.17E+03  -1.142E+01  -8.684E+02  -6.307E+01  +1.057E+02  -2.141E+02  +8.282E+00  +9.296E+02
  +8.64E+04  +8.24E+05  +5.17E+03  -1.142E+01  -8.684E+02  -6.307E+01  +1.057E+02  -2.141E+02  +8.282E+00  +9.296E+02
  +6.48E+04  +8.31E+05  +2.19E+04  -1.142E+01  -8.684E+02  -6.307E+01  +1.057E+02  -2.141E+02  +8.282E+00  +9.296E+02
  +8.64E+04  +8.47E+05  +5.17E+03  -1.142E+01  -8.684E+02  -6.307E+01  +1.057E+02  -2.141E+02  +8.282E+00  +9.296E+02

element # = 1453     type =4-n tetrahedron
 XX         YY         ZZ         SIGXX       SIGYY       SIGZZ       TAUXY       TAUYZ       TAUZX       SIGV
  +1.09E+05  +9.92E+05  +1.42E+05  -1.054E+01  -1.994E-01  -3.660E+02  -6.103E-01  -7.206E+01  +1.442E+01  +3.825E+02
  +1.09E+05  +9.92E+05  +1.17E+05  -1.054E+01  -1.994E-01  -3.660E+02  -6.103E-01  -7.206E+01  +1.442E+01  +3.825E+02
  +1.15E+05  +9.66E+05  +1.23E+05  -1.054E+01  -1.994E-01  -3.660E+02  -6.103E-01  -7.206E+01  +1.442E+01  +3.825E+02
  +1.30E+05  +9.92E+05  +1.38E+05  -1.054E+01  -1.994E-01  -3.660E+02  -6.103E-01  -7.206E+01  +1.442E+01  +3.825E+02

element # = 1454     type =4-n tetrahedron
 XX         YY         ZZ         SIGXX       SIGYY       SIGZZ       TAUXY       TAUYZ       TAUZX       SIGV
  +4.66E+04  +1.19E+05  +1.07E+05  -4.108E+02  +2.077E+03  -3.952E+03  -5.325E+01  -3.963E+03  -1.699E+03  +9.128E+03
  +4.68E+04  +1.54E+05  +1.01E+05  -4.108E+02  +2.077E+03  -3.952E+03  -5.325E+01  -3.963E+03  -1.699E+03  +9.128E+03
  +2.40E+04  +1.42E+05  +9.80E+04  -4.108E+02  +2.077E+03  -3.952E+03  -5.325E+01  -3.963E+03  -1.699E+03  +9.128E+03
  +5.61E+04  +1.35E+05  +7.85E+04  -4.108E+02  +2.077E+03  -3.952E+03  -5.325E+01  -3.963E+03  -1.699E+03  +9.128E+03

element # = 1455     type =4-n tetrahedron
 XX         YY         ZZ         SIGXX       SIGYY       SIGZZ       TAUXY       TAUYZ       TAUZX       SIGV
  +4.72E+04  +5.00E+04  +1.16E+05  +3.521E+03  +7.279E+03  +2.475E+03  -3.947E+02  -5.783E+03  +2.272E+03  +1.164E+04
  +4.72E+04  +4.97E+04  +9.36E+04  +3.521E+03  +7.279E+03  +2.475E+03  -3.947E+02  -5.783E+03  +2.272E+03  +1.164E+04
  +7.45E+04  +5.23E+04  +1.04E+05  +3.521E+03  +7.279E+03  +2.475E+03  -3.947E+02  -5.783E+03  +2.272E+03  +1.164E+04
  +5.33E+04  +7.46E+04  +1.13E+05  +3.521E+03  +7.279E+03  +2.475E+03  -3.947E+02  -5.783E+03  +2.272E+03  +1.164E+04

element # = 1456     type =4-n tetrahedron
 XX         YY         ZZ         SIGXX       SIGYY       SIGZZ       TAUXY       TAUYZ       TAUZX       SIGV
  +6.70E+04  +7.44E+03  +4.21E+04  -7.947E+03  -1.854E+04  -7.947E+03  -3.536E+02  -5.377E+03  +0.000E+00  +1.412E+04
  +8.24E+04  +3.15E+04  +3.83E+04  -7.947E+03  -1.854E+04  -7.947E+03  -3.536E+02  -5.377E+03  +0.000E+00  +1.412E+04
  +7.97E+04  +7.44E+03  +1.90E+04  -7.947E+03  -1.854E+04  -7.947E+03  -3.536E+02  -5.377E+03  +0.000E+00  +1.412E+04
  +8.86E+04  +7.44E+03  +3.81E+04  -7.947E+03  -1.854E+04  -7.947E+03  -3.536E+02  -5.377E+03  +0.000E+00  +1.412E+04

element # = 1457     type =4-n tetrahedron
 XX         YY         ZZ         SIGXX       SIGYY       SIGZZ       TAUXY       TAUYZ       TAUZX       SIGV
  +9.38E+04  +6.84E+04  +5.55E+04  -1.735E+03  -1.173E+04  -2.531E+03  +5.317E+02  -7.212E+03  +2.051E+03  +1.619E+04
  +1.20E+05  +8.41E+04  +6.38E+04  -1.735E+03  -1.173E+04  -2.531E+03  +5.317E+02  -7.212E+03  +2.051E+03  +1.619E+04
  +9.90E+04  +6.53E+04  +8.10E+04  -1.735E+03  -1.173E+04  -2.531E+03  +5.317E+02  -7.212E+03  +2.051E+03  +1.619E+04
  +8.74E+04  +1.03E+05  +6.16E+04  -1.735E+03  -1.173E+04  -2.531E+03  +5.317E+02  -7.212E+03  +2.051E+03  +1.619E+04

element # = 1458     type =4-n tetrahedron
 XX         YY         ZZ         SIGXX       SIGYY       SIGZZ       TAUXY       TAUYZ       TAUZX       SIGV
  +2.67E+04  +4.83E+04  +9.09E+04  +1.818E+02  +4.275E+02  -6.177E+02  -2.207E+01  -4.331E+03  +8.673E+02  +7.710E+03
  +1.02E+04  +4.88E+04  +1.01E+05  +1.818E+02  +4.275E+02  -6.177E+02  -2.207E+01  -4.331E+03  +8.673E+02  +7.710E+03
  +1.02E+04  +7.05E+04  +1.01E+05  +1.818E+02  +4.275E+02  -6.177E+02  -2.207E+01  -4.331E+03  +8.673E+02  +7.710E+03
  +2.67E+04  +4.85E+04  +1.13E+05  +1.818E+02  +4.275E+02  -6.177E+02  -2.207E+01  -4.331E+03  +8.673E+02  +7.710E+03

element # = 1459     type =4-n tetrahedron
 XX         YY         ZZ         SIGXX       SIGYY       SIGZZ       TAUXY       TAUYZ       TAUZX       SIGV
  +5.33E+04  +3.82E+04  +1.30E+05  +2.581E+03  +1.336E+04  +9.269E+01  +4.994E+02  -1.237E+02  -4.377E+02  +1.227E+04
  +7.26E+04  +4.31E+04  +1.44E+05  +2.581E+03  +1.336E+04  +9.269E+01  +4.994E+02  -1.237E+02  -4.377E+02  +1.227E+04
  +8.06E+04  +4.05E+04  +1.18E+05  +2.581E+03  +1.336E+04  +9.269E+01  +4.994E+02  -1.237E+02  -4.377E+02  +1.227E+04
  +5.99E+04  +1.95E+04  +1.40E+05  +2.581E+03  +1.336E+04  +9.269E+01  +4.994E+02  -1.237E+02  -4.377E+02  +1.227E+04

element # = 1460     type =4-n tetrahedron
 XX         YY         ZZ         SIGXX       SIGYY       SIGZZ       TAUXY       TAUYZ       TAUZX       SIGV
  +6.48E+04  +4.68E+03  +1.89E+05  +9.493E+03  +2.215E+04  +9.493E+03  +1.858E+03  -4.858E+03  +0.000E+00  +1.554E+04
  +4.62E+04  +1.98E+04  +1.75E+05  +9.493E+03  +2.215E+04  +9.493E+03  +1.858E+03  -4.858E+03  +0.000E+00  +1.554E+04
  +4.69E+04  +4.68E+03  +1.89E+05  +9.493E+03  +2.215E+04  +9.493E+03  +1.858E+03  -4.858E+03  +0.000E+00  +1.554E+04
  +5.21E+04  +4.68E+03  +1.66E+05  +9.493E+03  +2.215E+04  +9.493E+03  +1.858E+03  -4.858E+03  +0.000E+00  +1.554E+04

element # = 1461     type =4-n tetrahedron
 XX         YY         ZZ         SIGXX       SIGYY       SIGZZ       TAUXY       TAUYZ       TAUZX       SIGV
  +4.40E+04  +1.21E+05  +1.21E+05  +2.656E+03  +6.091E+03  +2.957E+03  -4.397E+02  -1.449E+03  -1.697E+03  +5.136E+03
  +4.42E+04  +1.55E+05  +1.14E+05  +2.656E+03  +6.091E+03  +2.957E+03  -4.397E+02  -1.449E+03  -1.697E+03  +5.136E+03
  +4.53E+04  +1.40E+05  +1.37E+05  +2.656E+03  +6.091E+03  +2.957E+03  -4.397E+02  -1.449E+03  -1.697E+03  +5.136E+03
  +2.14E+04  +1.43E+05  +1.12E+05  +2.656E+03  +6.091E+03  +2.957E+03  -4.397E+02  -1.449E+03  -1.697E+03  +5.136E+03

element # = 1462     type =4-n tetrahedron
 XX         YY         ZZ         SIGXX       SIGYY       SIGZZ       TAUXY       TAUYZ       TAUZX       SIGV
  +7.04E+04  +9.78E+05  +1.13E+04  +4.131E+01  +1.261E+00  -4.102E+00  -1.198E+00  -3.086E+01  +2.057E+01  +7.732E+01
  +5.06E+04  +9.62E+05  +2.68E+04  +4.131E+01  +1.261E+00  -4.102E+00  -1.198E+00  -3.086E+01  +2.057E+01  +7.732E+01
  +7.17E+04  +9.45E+05  +3.24E+04  +4.131E+01  +1.261E+00  -4.102E+00  -1.198E+00  -3.086E+01  +2.057E+01  +7.732E+01
  +5.81E+04  +9.53E+05  +1.13E+04  +4.131E+01  +1.261E+00  -4.102E+00  -1.198E+00  -3.086E+01  +2.057E+01  +7.732E+01

element # = 1463     type =4-n tetrahedron
 XX         YY         ZZ         SIGXX       SIGYY       SIGZZ       TAUXY       TAUYZ       TAUZX       SIGV
  +5.76E+04  +9.85E+05  +4.15E+04  +2.953E+01  -2.257E+01  +2.408E+00  -1.089E+01  -3.937E+01  +1.301E+01  +8.690E+01
  +7.03E+04  +9.85E+05  +1.84E+04  +2.953E+01  -2.257E+01  +2.408E+00  -1.089E+01  -3.937E+01  +1.301E+01  +8.690E+01
  +5.05E+04  +9.70E+05  +3.39E+04  +2.953E+01  -2.257E+01  +2.408E+00  -1.089E+01  -3.937E+01  +1.301E+01  +8.690E+01
  +7.16E+04  +9.53E+05  +3.96E+04  +2.953E+01  -2.257E+01  +2.408E+00  -1.089E+01  -3.937E+01  +1.301E+01  +8.690E+01

element # = 1464     type =4-n tetrahedron
 XX         YY         ZZ         SIGXX       SIGYY       SIGZZ       TAUXY       TAUYZ       TAUZX       SIGV
  +8.64E+04  +5.60E+05  +9.70E+04  +2.721E+02  +7.330E+02  -7.872E+02  +3.037E+02  -2.039E+03  -5.621E+01  +3.819E+03
  +8.29E+04  +5.59E+05  +1.26E+05  +2.721E+02  +7.330E+02  -7.872E+02  +3.037E+02  -2.039E+03  -5.621E+01  +3.819E+03
  +6.44E+04  +5.71E+05  +9.99E+04  +2.721E+02  +7.330E+02  -7.872E+02  +3.037E+02  -2.039E+03  -5.621E+01  +3.819E+03
  +9.13E+04  +5.89E+05  +1.14E+05  +2.721E+02  +7.330E+02  -7.872E+02  +3.037E+02  -2.039E+03  -5.621E+01  +3.819E+03

element # = 1465     type =4-n tetrahedron
 XX         YY         ZZ         SIGXX       SIGYY       SIGZZ       TAUXY       TAUYZ       TAUZX       SIGV
  +2.10E+04  +5.51E+05  +4.10E+04  -2.281E+02  -3.912E+03  -2.321E+02  +1.444E+02  -1.013E+03  -4.206E+02  +4.150E+03
  +4.56E+04  +5.41E+05  +3.87E+04  -2.281E+02  -3.912E+03  -2.321E+02  +1.444E+02  -1.013E+03  -4.206E+02  +4.150E+03
  +4.19E+04  +5.72E+05  +3.59E+04  -2.281E+02  -3.912E+03  -2.321E+02  +1.444E+02  -1.013E+03  -4.206E+02  +4.150E+03
  +4.34E+04  +5.51E+05  +1.85E+04  -2.281E+02  -3.912E+03  -2.321E+02  +1.444E+02  -1.013E+03  -4.206E+02  +4.150E+03

element # = 1466     type =4-n tetrahedron
 XX         YY         ZZ         SIGXX       SIGYY       SIGZZ       TAUXY       TAUYZ       TAUZX       SIGV
  +2.14E+04  +5.24E+05  +6.24E+03  -2.847E+02  -8.145E+03  -2.342E+02  +8.895E+01  -8.582E+02  -5.466E+02  +8.081E+03
  +4.38E+04  +5.13E+05  +6.24E+03  -2.847E+02  -8.145E+03  -2.342E+02  +8.895E+01  -8.582E+02  -5.466E+02  +8.081E+03
  +4.61E+04  +5.24E+05  +2.64E+04  -2.847E+02  -8.145E+03  -2.342E+02  +8.895E+01  -8.582E+02  -5.466E+02  +8.081E+03
  +4.38E+04  +5.35E+05  +6.24E+03  -2.847E+02  -8.145E+03  -2.342E+02  +8.895E+01  -8.582E+02  -5.466E+02  +8.081E+03

element # = 1467     type =4-n tetrahedron
 XX         YY         ZZ         SIGXX       SIGYY       SIGZZ       TAUXY       TAUYZ       TAUZX       SIGV
  +3.92E+04  +5.31E+05  +3.34E+04  -2.987E+02  -5.784E+03  -1.925E+02  +2.498E+02  -8.106E+02  +1.549E+00  +5.731E+03
  +1.45E+04  +5.30E+05  +1.32E+04  -2.987E+02  -5.784E+03  -1.925E+02  +2.498E+02  -8.106E+02  +1.549E+00  +5.731E+03
  +3.69E+04  +5.41E+05  +1.32E+04  -2.987E+02  -5.784E+03  -1.925E+02  +2.498E+02  -8.106E+02  +1.549E+00  +5.731E+03
  +1.45E+04  +5.41E+05  +3.56E+04  -2.987E+02  -5.784E+03  -1.925E+02  +2.498E+02  -8.106E+02  +1.549E+00  +5.731E+03

element # = 1468     type =4-n tetrahedron
 XX         YY         ZZ         SIGXX       SIGYY       SIGZZ       TAUXY       TAUYZ       TAUZX       SIGV
  +6.91E+03  +5.37E+05  +6.93E+03  -4.054E+02  -7.049E+03  -3.653E+02  +2.048E+02  -8.021E+02  +2.170E+02  +6.826E+03
  +6.91E+03  +5.58E+05  +6.93E+03  -4.054E+02  -7.049E+03  -3.653E+02  +2.048E+02  -8.021E+02  +2.170E+02  +6.826E+03
  +2.93E+04  +5.48E+05  +6.93E+03  -4.054E+02  -7.049E+03  -3.653E+02  +2.048E+02  -8.021E+02  +2.170E+02  +6.826E+03
  +6.91E+03  +5.47E+05  +2.94E+04  -4.054E+02  -7.049E+03  -3.653E+02  +2.048E+02  -8.021E+02  +2.170E+02  +6.826E+03

element # = 1469     type =4-n tetrahedron
 XX         YY         ZZ         SIGXX       SIGYY       SIGZZ       TAUXY       TAUYZ       TAUZX       SIGV
  +5.11E+03  +5.75E+04  +1.32E+05  -1.752E+03  +7.678E+01  +1.789E+02  -1.190E+03  -2.743E+03  +1.535E+03  +6.118E+03
  +5.11E+03  +5.10E+04  +1.10E+05  -1.752E+03  +7.678E+01  +1.789E+02  -1.190E+03  -2.743E+03  +1.535E+03  +6.118E+03
  +2.16E+04  +5.07E+04  +1.22E+05  -1.752E+03  +7.678E+01  +1.789E+02  -1.190E+03  -2.743E+03  +1.535E+03  +6.118E+03
  +5.11E+03  +7.27E+04  +1.10E+05  -1.752E+03  +7.678E+01  +1.789E+02  -1.190E+03  -2.743E+03  +1.535E+03  +6.118E+03

element # = 1470     type =4-n tetrahedron
 XX         YY         ZZ         SIGXX       SIGYY       SIGZZ       TAUXY       TAUYZ       TAUZX       SIGV
  +1.18E+05  +5.66E+03  +1.30E+04  -1.396E+04  -3.258E+04  -1.396E+04  -1.390E+02  -7.223E+03  +0.000E+00  +2.243E+04
  +1.09E+05  +2.40E+04  +1.30E+04  -1.396E+04  -3.258E+04  -1.396E+04  -1.390E+02  -7.223E+03  +0.000E+00  +2.243E+04
  +1.31E+05  +5.66E+03  +3.61E+04  -1.396E+04  -3.258E+04  -1.396E+04  -1.390E+02  -7.223E+03  +0.000E+00  +2.243E+04
  +1.09E+05  +5.66E+03  +3.22E+04  -1.396E+04  -3.258E+04  -1.396E+04  -1.390E+02  -7.223E+03  +0.000E+00  +2.243E+04

element # = 1471     type =4-n tetrahedron
 XX         YY         ZZ         SIGXX       SIGYY       SIGZZ       TAUXY       TAUYZ       TAUZX       SIGV
  +5.76E+04  +6.10E+05  +3.23E+04  +1.227E+02  -3.549E+03  -1.921E+02  +1.590E+02  -7.027E+02  +2.895E+01  +3.740E+03
  +6.75E+04  +6.25E+05  +4.58E+04  +1.227E+02  -3.549E+03  -1.921E+02  +1.590E+02  -7.027E+02  +2.895E+01  +3.740E+03
  +5.91E+04  +6.31E+05  +1.49E+04  +1.227E+02  -3.549E+03  -1.921E+02  +1.590E+02  -7.027E+02  +2.895E+01  +3.740E+03
  +8.14E+04  +6.21E+05  +1.49E+04  +1.227E+02  -3.549E+03  -1.921E+02  +1.590E+02  -7.027E+02  +2.895E+01  +3.740E+03

element # = 1472     type =4-n tetrahedron
 XX         YY         ZZ         SIGXX       SIGYY       SIGZZ       TAUXY       TAUYZ       TAUZX       SIGV
  +7.89E+04  +2.12E+05  +1.62E+05  -3.371E+02  +1.292E+04  -1.447E+03  +1.005E+02  -1.137E+03  +3.467E+02  +1.400E+04
  +5.77E+04  +2.24E+05  +1.66E+05  -3.371E+02  +1.292E+04  -1.447E+03  +1.005E+02  -1.137E+03  +3.467E+02  +1.400E+04
  +8.36E+04  +2.28E+05  +1.86E+05  -3.371E+02  +1.292E+04  -1.447E+03  +1.005E+02  -1.137E+03  +3.467E+02  +1.400E+04
  +6.13E+04  +2.17E+05  +1.86E+05  -3.371E+02  +1.292E+04  -1.447E+03  +1.005E+02  -1.137E+03  +3.467E+02  +1.400E+04

element # = 1473     type =4-n tetrahedron
 XX         YY         ZZ         SIGXX       SIGYY       SIGZZ       TAUXY       TAUYZ       TAUZX       SIGV
  +6.98E+03  +1.16E+05  +2.93E+04  -1.245E+03  -2.648E+04  -1.050E+03  +9.518E+01  -1.753E+03  +7.261E+02  +2.554E+04
  +2.95E+04  +1.15E+05  +6.92E+03  -1.245E+03  -2.648E+04  -1.050E+03  +9.518E+01  -1.753E+03  +7.261E+02  +2.554E+04
  +6.98E+03  +1.28E+05  +6.92E+03  -1.245E+03  -2.648E+04  -1.050E+03  +9.518E+01  -1.753E+03  +7.261E+02  +2.554E+04
  +6.98E+03  +1.07E+05  +6.92E+03  -1.245E+03  -2.648E+04  -1.050E+03  +9.518E+01  -1.753E+03  +7.261E+02  +2.554E+04

element # = 1474     type =4-n tetrahedron
 XX         YY         ZZ         SIGXX       SIGYY       SIGZZ       TAUXY       TAUYZ       TAUZX       SIGV
  +1.39E+04  +1.26E+05  +2.93E+04  -1.442E+03  -2.256E+04  -1.169E+03  +1.237E+02  -1.802E+03  -2.633E+02  +2.149E+04
  +3.64E+04  +1.47E+05  +6.92E+03  -1.442E+03  -2.256E+04  -1.169E+03  +1.237E+02  -1.802E+03  -2.633E+02  +2.149E+04
  +1.39E+04  +1.38E+05  +6.92E+03  -1.442E+03  -2.256E+04  -1.169E+03  +1.237E+02  -1.802E+03  -2.633E+02  +2.149E+04
  +3.65E+04  +1.25E+05  +6.92E+03  -1.442E+03  -2.256E+04  -1.169E+03  +1.237E+02  -1.802E+03  -2.633E+02  +2.149E+04

element # = 1475     type =4-n tetrahedron
 XX         YY         ZZ         SIGXX       SIGYY       SIGZZ       TAUXY       TAUYZ       TAUZX       SIGV
  +1.93E+05  +3.56E+04  +1.99E+04  -7.523E+03  -1.760E+04  -2.956E+03  +3.355E+03  -2.758E+02  -1.920E+03  +1.461E+04
  +1.70E+05  +1.43E+04  +4.30E+04  -7.523E+03  -1.760E+04  -2.956E+03  +3.355E+03  -2.758E+02  -1.920E+03  +1.461E+04
  +1.93E+05  +3.93E+04  +4.34E+04  -7.523E+03  -1.760E+04  -2.956E+03  +3.355E+03  -2.758E+02  -1.920E+03  +1.461E+04
  +1.93E+05  +1.43E+04  +3.78E+04  -7.523E+03  -1.760E+04  -2.956E+03  +3.355E+03  -2.758E+02  -1.920E+03  +1.461E+04

element # = 1476     type =4-n tetrahedron
 XX         YY         ZZ         SIGXX       SIGYY       SIGZZ       TAUXY       TAUYZ       TAUZX       SIGV
  +1.37E+05  +5.99E+05  +3.07E+04  -1.380E+02  -4.220E+03  -1.113E+02  -1.424E+02  -1.056E+03  -3.977E+02  +4.545E+03
  +1.42E+05  +6.25E+05  +7.24E+03  -1.380E+02  -4.220E+03  -1.113E+02  -1.424E+02  -1.056E+03  -3.977E+02  +4.545E+03
  +1.19E+05  +6.14E+05  +7.24E+03  -1.380E+02  -4.220E+03  -1.113E+02  -1.424E+02  -1.056E+03  -3.977E+02  +4.545E+03
  +1.42E+05  +6.04E+05  +7.24E+03  -1.380E+02  -4.220E+03  -1.113E+02  -1.424E+02  -1.056E+03  -3.977E+02  +4.545E+03

element # = 1477     type =4-n tetrahedron
 XX         YY         ZZ         SIGXX       SIGYY       SIGZZ       TAUXY       TAUYZ       TAUZX       SIGV
  +6.94E+03  +1.33E+05  +3.55E+04  +1.373E+03  -1.334E+04  +5.791E+02  -7.114E+02  -1.503E+03  +5.282E+02  +1.465E+04
  +2.94E+04  +1.55E+05  +1.32E+04  +1.373E+03  -1.334E+04  +5.791E+02  -7.114E+02  -1.503E+03  +5.282E+02  +1.465E+04
  +6.94E+03  +1.56E+05  +3.33E+04  +1.373E+03  -1.334E+04  +5.791E+02  -7.114E+02  -1.503E+03  +5.282E+02  +1.465E+04
  +6.94E+03  +1.45E+05  +1.32E+04  +1.373E+03  -1.334E+04  +5.791E+02  -7.114E+02  -1.503E+03  +5.282E+02  +1.465E+04

element # = 1478     type =4-n tetrahedron
 XX         YY         ZZ         SIGXX       SIGYY       SIGZZ       TAUXY       TAUYZ       TAUZX       SIGV
  +1.37E+05  +5.79E+05  +3.07E+04  -3.671E+02  -7.116E+03  -5.884E+02  +5.480E+01  -5.300E+02  -1.560E+02  +6.711E+03
  +1.42E+05  +5.84E+05  +7.24E+03  -3.671E+02  -7.116E+03  -5.884E+02  +5.480E+01  -5.300E+02  -1.560E+02  +6.711E+03
  +1.19E+05  +5.73E+05  +7.24E+03  -3.671E+02  -7.116E+03  -5.884E+02  +5.480E+01  -5.300E+02  -1.560E+02  +6.711E+03
  +1.42E+05  +5.63E+05  +7.24E+03  -3.671E+02  -7.116E+03  -5.884E+02  +5.480E+01  -5.300E+02  -1.560E+02  +6.711E+03

element # = 1479     type =4-n tetrahedron
 XX         YY         ZZ         SIGXX       SIGYY       SIGZZ       TAUXY       TAUYZ       TAUZX       SIGV
  +1.14E+04  +2.00E+05  +1.37E+05  +3.841E+02  +1.037E+04  +7.584E+01  -6.026E+02  -2.461E+03  -3.483E+01  +1.106E+04
  +3.02E+04  +2.16E+05  +1.52E+05  +3.841E+02  +1.037E+04  +7.584E+01  -6.026E+02  -2.461E+03  -3.483E+01  +1.106E+04
  +2.96E+04  +1.97E+05  +1.56E+05  +3.841E+02  +1.037E+04  +7.584E+01  -6.026E+02  -2.461E+03  -3.483E+01  +1.106E+04
  +1.14E+04  +2.10E+05  +1.54E+05  +3.841E+02  +1.037E+04  +7.584E+01  -6.026E+02  -2.461E+03  -3.483E+01  +1.106E+04

element # = 1480     type =4-n tetrahedron
 XX         YY         ZZ         SIGXX       SIGYY       SIGZZ       TAUXY       TAUYZ       TAUZX       SIGV
  +1.49E+05  +5.01E+05  +5.15E+04  -1.800E+01  -3.752E+03  +3.145E+02  -1.066E+01  -5.097E+02  +2.950E+02  +4.041E+03
  +1.51E+05  +4.75E+05  +4.74E+04  -1.800E+01  -3.752E+03  +3.145E+02  -1.066E+01  -5.097E+02  +2.950E+02  +4.041E+03
  +1.77E+05  +4.95E+05  +4.55E+04  -1.800E+01  -3.752E+03  +3.145E+02  -1.066E+01  -5.097E+02  +2.950E+02  +4.041E+03
  +1.54E+05  +4.95E+05  +2.32E+04  -1.800E+01  -3.752E+03  +3.145E+02  -1.066E+01  -5.097E+02  +2.950E+02  +4.041E+03

element # = 1481     type =4-n tetrahedron
 XX         YY         ZZ         SIGXX       SIGYY       SIGZZ       TAUXY       TAUYZ       TAUZX       SIGV
  +6.00E+04  +7.01E+05  +1.78E+05  +1.341E+02  +2.954E+03  -8.792E+01  -2.654E+02  -2.198E+02  -6.935E+01  +3.000E+03
  +6.29E+04  +6.93E+05  +1.95E+05  +1.341E+02  +2.954E+03  -8.792E+01  -2.654E+02  -2.198E+02  -6.935E+01  +3.000E+03
  +8.53E+04  +7.04E+05  +1.95E+05  +1.341E+02  +2.954E+03  -8.792E+01  -2.654E+02  -2.198E+02  -6.935E+01  +3.000E+03
  +8.53E+04  +6.83E+05  +1.95E+05  +1.341E+02  +2.954E+03  -8.792E+01  -2.654E+02  -2.198E+02  -6.935E+01  +3.000E+03

element # = 1482     type =4-n tetrahedron
 XX         YY         ZZ         SIGXX       SIGYY       SIGZZ       TAUXY       TAUYZ       TAUZX       SIGV
  +8.59E+04  +9.84E+05  +1.24E+04  +2.832E+01  -3.418E+01  -1.965E+01  +2.390E+01  -4.979E+01  -1.312E+01  +1.135E+02
  +9.49E+04  +9.84E+05  +3.15E+04  +2.832E+01  -3.418E+01  -1.965E+01  +2.390E+01  -4.979E+01  -1.312E+01  +1.135E+02
  +9.49E+04  +9.66E+05  +1.24E+04  +2.832E+01  -3.418E+01  -1.965E+01  +2.390E+01  -4.979E+01  -1.312E+01  +1.135E+02
  +8.72E+04  +9.52E+05  +3.36E+04  +2.832E+01  -3.418E+01  -1.965E+01  +2.390E+01  -4.979E+01  -1.312E+01  +1.135E+02

element # = 1483     type =4-n tetrahedron
 XX         YY         ZZ         SIGXX       SIGYY       SIGZZ       TAUXY       TAUYZ       TAUZX       SIGV
  +1.71E+05  +7.49E+05  +1.38E+04  +1.415E+02  -8.940E+02  +1.297E+02  -2.161E+02  -3.857E+02  -4.334E+01  +1.285E+03
  +1.93E+05  +7.70E+05  +3.63E+04  +1.415E+02  -8.940E+02  +1.297E+02  -2.161E+02  -3.857E+02  -4.334E+01  +1.285E+03
  +1.93E+05  +7.59E+05  +1.38E+04  +1.415E+02  -8.940E+02  +1.297E+02  -2.161E+02  -3.857E+02  -4.334E+01  +1.285E+03
  +1.93E+05  +7.49E+05  +3.62E+04  +1.415E+02  -8.940E+02  +1.297E+02  -2.161E+02  -3.857E+02  -4.334E+01  +1.285E+03

element # = 1484     type =4-n tetrahedron
 XX         YY         ZZ         SIGXX       SIGYY       SIGZZ       TAUXY       TAUYZ       TAUZX       SIGV
  +1.25E+05  +6.07E+05  +4.80E+04  +1.528E+02  -1.971E+03  +2.349E+02  +9.583E+01  -7.892E+02  -1.095E+02  +2.573E+03
  +9.32E+04  +6.27E+05  +5.55E+04  +1.528E+02  -1.971E+03  +2.349E+02  +9.583E+01  -7.892E+02  -1.095E+02  +2.573E+03
  +1.07E+05  +6.23E+05  +2.46E+04  +1.528E+02  -1.971E+03  +2.349E+02  +9.583E+01  -7.892E+02  -1.095E+02  +2.573E+03
  +1.26E+05  +6.45E+05  +4.98E+04  +1.528E+02  -1.971E+03  +2.349E+02  +9.583E+01  -7.892E+02  -1.095E+02  +2.573E+03

element # = 1485     type =4-n tetrahedron
 XX         YY         ZZ         SIGXX       SIGYY       SIGZZ       TAUXY       TAUYZ       TAUZX       SIGV
  +1.80E+05  +7.90E+05  +1.01E+05  -2.252E+01  +7.550E+01  -4.892E+02  -8.022E+00  -9.344E+02  +6.945E+01  +1.705E+03
  +1.48E+05  +7.63E+05  +1.20E+05  -2.252E+01  +7.550E+01  -4.892E+02  -8.022E+00  -9.344E+02  +6.945E+01  +1.705E+03
  +1.80E+05  +7.68E+05  +1.01E+05  -2.252E+01  +7.550E+01  -4.892E+02  -8.022E+00  -9.344E+02  +6.945E+01  +1.705E+03
  +1.50E+05  +7.66E+05  +8.76E+04  -2.252E+01  +7.550E+01  -4.892E+02  -8.022E+00  -9.344E+02  +6.945E+01  +1.705E+03

element # = 1486     type =4-n tetrahedron
 XX         YY         ZZ         SIGXX       SIGYY       SIGZZ       TAUXY       TAUYZ       TAUZX       SIGV
  +9.54E+04  +9.92E+05  +1.42E+05  -2.735E+00  +9.549E+00  -3.607E+02  +8.307E+00  -7.472E+01  +4.218E+00  +3.869E+02
  +9.54E+04  +9.92E+05  +1.17E+05  -2.735E+00  +9.549E+00  -3.607E+02  +8.307E+00  -7.472E+01  +4.218E+00  +3.869E+02
  +7.38E+04  +9.92E+05  +1.38E+05  -2.735E+00  +9.549E+00  -3.607E+02  +8.307E+00  -7.472E+01  +4.218E+00  +3.869E+02
  +1.02E+05  +9.66E+05  +1.23E+05  -2.735E+00  +9.549E+00  -3.607E+02  +8.307E+00  -7.472E+01  +4.218E+00  +3.869E+02

element # = 1487     type =4-n tetrahedron
 XX         YY         ZZ         SIGXX       SIGYY       SIGZZ       TAUXY       TAUYZ       TAUZX       SIGV
  +2.98E+04  +3.89E+05  +3.62E+04  -3.789E+02  -7.649E+03  -1.796E+01  +2.534E+02  -7.346E+02  +7.418E+02  +7.686E+03
  +7.03E+03  +3.69E+05  +3.65E+04  -3.789E+02  -7.649E+03  -1.796E+01  +2.534E+02  -7.346E+02  +7.418E+02  +7.686E+03
  +7.03E+03  +3.82E+05  +1.79E+04  -3.789E+02  -7.649E+03  -1.796E+01  +2.534E+02  -7.346E+02  +7.418E+02  +7.686E+03
  +7.03E+03  +3.91E+05  +3.87E+04  -3.789E+02  -7.649E+03  -1.796E+01  +2.534E+02  -7.346E+02  +7.418E+02  +7.686E+03

element # = 1488     type =4-n tetrahedron
 XX         YY         ZZ         SIGXX       SIGYY       SIGZZ       TAUXY       TAUYZ       TAUZX       SIGV
  +1.39E+04  +3.93E+05  +5.67E+03  +2.460E+02  -1.032E+04  +6.962E+02  +1.062E+02  -9.185E+02  -1.796E+01  +1.092E+04
  +3.67E+04  +3.99E+05  +2.40E+04  +2.460E+02  -1.032E+04  +6.962E+02  +1.062E+02  -9.185E+02  -1.796E+01  +1.092E+04
  +1.39E+04  +4.14E+05  +5.67E+03  +2.460E+02  -1.032E+04  +6.962E+02  +1.062E+02  -9.185E+02  -1.796E+01  +1.092E+04
  +3.63E+04  +4.03E+05  +5.67E+03  +2.460E+02  -1.032E+04  +6.962E+02  +1.062E+02  -9.185E+02  -1.796E+01  +1.092E+04

element # = 1489     type =4-n tetrahedron
 XX         YY         ZZ         SIGXX       SIGYY       SIGZZ       TAUXY       TAUYZ       TAUZX       SIGV
  +2.98E+04  +3.87E+05  +4.79E+04  -8.086E+01  -7.052E+03  +3.199E+02  +9.354E+01  -2.291E+03  +8.132E+02  +8.325E+03
  +7.03E+03  +3.75E+05  +6.74E+04  -8.086E+01  -7.052E+03  +3.199E+02  +9.354E+01  -2.291E+03  +8.132E+02  +8.325E+03
  +7.03E+03  +3.68E+05  +4.82E+04  -8.086E+01  -7.052E+03  +3.199E+02  +9.354E+01  -2.291E+03  +8.132E+02  +8.325E+03
  +7.03E+03  +3.89E+05  +5.04E+04  -8.086E+01  -7.052E+03  +3.199E+02  +9.354E+01  -2.291E+03  +8.132E+02  +8.325E+03

element # = 1490     type =4-n tetrahedron
 XX         YY         ZZ         SIGXX       SIGYY       SIGZZ       TAUXY       TAUYZ       TAUZX       SIGV
  +5.65E+04  +6.05E+05  +5.36E+03  +4.664E+02  -4.125E+03  +7.073E+02  +1.843E+02  -8.783E+02  +4.225E+02  +5.020E+03
  +5.50E+04  +6.05E+05  +2.27E+04  +4.664E+02  -4.125E+03  +7.073E+02  +1.843E+02  -8.783E+02  +4.225E+02  +5.020E+03
  +5.65E+04  +6.27E+05  +5.36E+03  +4.664E+02  -4.125E+03  +7.073E+02  +1.843E+02  -8.783E+02  +4.225E+02  +5.020E+03
  +7.88E+04  +6.16E+05  +5.36E+03  +4.664E+02  -4.125E+03  +7.073E+02  +1.843E+02  -8.783E+02  +4.225E+02  +5.020E+03

element # = 1491     type =4-n tetrahedron
 XX         YY         ZZ         SIGXX       SIGYY       SIGZZ       TAUXY       TAUYZ       TAUZX       SIGV
  +1.86E+05  +7.97E+05  +2.93E+04  -4.689E+01  -1.100E+03  -9.174E+01  -4.924E+01  -3.748E+02  +3.480E+01  +1.223E+03
  +1.64E+05  +8.19E+05  +6.92E+03  -4.689E+01  -1.100E+03  -9.174E+01  -4.924E+01  -3.748E+02  +3.480E+01  +1.223E+03
  +1.64E+05  +7.97E+05  +6.92E+03  -4.689E+01  -1.100E+03  -9.174E+01  -4.924E+01  -3.748E+02  +3.480E+01  +1.223E+03
  +1.86E+05  +8.07E+05  +6.92E+03  -4.689E+01  -1.100E+03  -9.174E+01  -4.924E+01  -3.748E+02  +3.480E+01  +1.223E+03

element # = 1492     type =4-n tetrahedron
 XX         YY         ZZ         SIGXX       SIGYY       SIGZZ       TAUXY       TAUYZ       TAUZX       SIGV
  +1.89E+05  +3.13E+05  +6.50E+04  +1.300E+03  -7.654E+02  -8.141E+01  +5.139E+02  -2.353E+03  -7.573E+02  +4.738E+03
  +1.89E+05  +3.24E+05  +8.73E+04  +1.300E+03  -7.654E+02  -8.141E+01  +5.139E+02  -2.353E+03  -7.573E+02  +4.738E+03
  +1.89E+05  +3.02E+05  +8.73E+04  +1.300E+03  -7.654E+02  -8.141E+01  +5.139E+02  -2.353E+03  -7.573E+02  +4.738E+03
  +1.55E+05  +3.26E+05  +6.86E+04  +1.300E+03  -7.654E+02  -8.141E+01  +5.139E+02  -2.353E+03  -7.573E+02  +4.738E+03

element # = 1493     type =4-n tetrahedron
 XX         YY         ZZ         SIGXX       SIGYY       SIGZZ       TAUXY       TAUYZ       TAUZX       SIGV
  +1.00E+05  +2.40E+04  +5.91E+03  -1.396E+04  -3.258E+04  -1.396E+04  -1.390E+02  -7.223E+03  +0.000E+00  +2.243E+04
  +1.09E+05  +5.66E+03  +5.91E+03  -1.396E+04  -3.258E+04  -1.396E+04  -1.390E+02  -7.223E+03  +0.000E+00  +2.243E+04
  +9.11E+04  +5.66E+03  +5.91E+03  -1.396E+04  -3.258E+04  -1.396E+04  -1.390E+02  -7.223E+03  +0.000E+00  +2.243E+04
  +1.00E+05  +5.66E+03  +2.50E+04  -1.396E+04  -3.258E+04  -1.396E+04  -1.390E+02  -7.223E+03  +0.000E+00  +2.243E+04

element # = 1494     type =4-n tetrahedron
 XX         YY         ZZ         SIGXX       SIGYY       SIGZZ       TAUXY       TAUYZ       TAUZX       SIGV
  +1.91E+05  +8.48E+05  +5.88E+04  -1.122E+02  -5.242E+02  -2.841E+02  +4.036E+00  -4.653E+02  -3.046E+01  +8.836E+02
  +1.91E+05  +8.71E+05  +5.89E+04  -1.122E+02  -5.242E+02  -2.841E+02  +4.036E+00  -4.653E+02  -3.046E+01  +8.836E+02
  +1.91E+05  +8.60E+05  +8.10E+04  -1.122E+02  -5.242E+02  -2.841E+02  +4.036E+00  -4.653E+02  -3.046E+01  +8.836E+02
  +1.64E+05  +8.54E+05  +6.41E+04  -1.122E+02  -5.242E+02  -2.841E+02  +4.036E+00  -4.653E+02  -3.046E+01  +8.836E+02

element # = 1495     type =4-n tetrahedron
 XX         YY         ZZ         SIGXX       SIGYY       SIGZZ       TAUXY       TAUYZ       TAUZX       SIGV
  +5.28E+04  +3.45E+05  +1.60E+05  +1.390E+03  +8.433E+03  +9.096E+01  +1.763E+02  -1.497E+03  +8.734E+02  +8.339E+03
  +5.74E+04  +3.71E+05  +1.59E+05  +1.390E+03  +8.433E+03  +9.096E+01  +1.763E+02  -1.497E+03  +8.734E+02  +8.339E+03
  +7.51E+04  +3.56E+05  +1.47E+05  +1.390E+03  +8.433E+03  +9.096E+01  +1.763E+02  -1.497E+03  +8.734E+02  +8.339E+03
  +5.57E+04  +3.57E+05  +1.79E+05  +1.390E+03  +8.433E+03  +9.096E+01  +1.763E+02  -1.497E+03  +8.734E+02  +8.339E+03

element # = 1496     type =4-n tetrahedron
 XX         YY         ZZ         SIGXX       SIGYY       SIGZZ       TAUXY       TAUYZ       TAUZX       SIGV
  +6.86E+04  +7.36E+05  +1.93E+05  +7.890E+01  +2.293E+03  -4.384E+02  +7.583E+00  -5.867E+02  -1.406E+02  +2.722E+03
  +8.37E+04  +7.26E+05  +1.69E+05  +7.890E+01  +2.293E+03  -4.384E+02  +7.583E+00  -5.867E+02  -1.406E+02  +2.722E+03
  +9.09E+04  +7.25E+05  +1.93E+05  +7.890E+01  +2.293E+03  -4.384E+02  +7.583E+00  -5.867E+02  -1.406E+02  +2.722E+03
  +9.09E+04  +7.47E+05  +1.93E+05  +7.890E+01  +2.293E+03  -4.384E+02  +7.583E+00  -5.867E+02  -1.406E+02  +2.722E+03

element # = 1497     type =4-n tetrahedron
 XX         YY         ZZ         SIGXX       SIGYY       SIGZZ       TAUXY       TAUYZ       TAUZX       SIGV
  +6.29E+04  +6.93E+05  +6.37E+03  -2.558E+02  -3.140E+03  -4.323E+02  +2.954E+02  -2.110E+02  +7.036E+01  +2.872E+03
  +8.52E+04  +7.04E+05  +6.37E+03  -2.558E+02  -3.140E+03  -4.323E+02  +2.954E+02  -2.110E+02  +7.036E+01  +2.872E+03
  +8.52E+04  +6.82E+05  +6.37E+03  -2.558E+02  -3.140E+03  -4.323E+02  +2.954E+02  -2.110E+02  +7.036E+01  +2.872E+03
  +5.98E+04  +6.99E+05  +2.70E+04  -2.558E+02  -3.140E+03  -4.323E+02  +2.954E+02  -2.110E+02  +7.036E+01  +2.872E+03

element # = 1498     type =4-n tetrahedron
 XX         YY         ZZ         SIGXX       SIGYY       SIGZZ       TAUXY       TAUYZ       TAUZX       SIGV
  +5.13E+04  +7.82E+05  +1.15E+05  -1.645E+01  +1.252E+02  -2.737E+02  +1.201E+02  -6.071E+02  -3.553E+01  +1.129E+03
  +6.46E+04  +7.95E+05  +8.84E+04  -1.645E+01  +1.252E+02  -2.737E+02  +1.201E+02  -6.071E+02  -3.553E+01  +1.129E+03
  +5.96E+04  +8.03E+05  +1.26E+05  -1.645E+01  +1.252E+02  -2.737E+02  +1.201E+02  -6.071E+02  -3.553E+01  +1.129E+03
  +5.00E+04  +8.10E+05  +9.83E+04  -1.645E+01  +1.252E+02  -2.737E+02  +1.201E+02  -6.071E+02  -3.553E+01  +1.129E+03

element # = 1499     type =4-n tetrahedron
 XX         YY         ZZ         SIGXX       SIGYY       SIGZZ       TAUXY       TAUYZ       TAUZX       SIGV
  +4.12E+04  +8.43E+05  +8.20E+04  +5.201E+01  -9.092E+01  -1.022E+02  +3.367E+01  -3.950E+02  +1.053E+01  +7.028E+02
  +4.07E+04  +8.64E+05  +6.15E+04  +5.201E+01  -9.092E+01  -1.022E+02  +3.367E+01  -3.950E+02  +1.053E+01  +7.028E+02
  +5.80E+04  +8.62E+05  +7.83E+04  +5.201E+01  -9.092E+01  -1.022E+02  +3.367E+01  -3.950E+02  +1.053E+01  +7.028E+02
  +2.24E+04  +8.59E+05  +8.75E+04  +5.201E+01  -9.092E+01  -1.022E+02  +3.367E+01  -3.950E+02  +1.053E+01  +7.028E+02

element # = 1500     type =4-n tetrahedron
 XX         YY         ZZ         SIGXX       SIGYY       SIGZZ       TAUXY       TAUYZ       TAUZX       SIGV
  +2.08E+04  +8.07E+05  +1.08E+05  +1.055E+02  +2.792E+02  -1.616E+02  -5.783E+01  -5.317E+02  -7.010E+01  +1.010E+03
  +4.93E+04  +8.05E+05  +1.30E+05  +1.055E+02  +2.792E+02  -1.616E+02  -5.783E+01  -5.317E+02  -7.010E+01  +1.010E+03
  +3.96E+04  +8.13E+05  +1.03E+05  +1.055E+02  +2.792E+02  -1.616E+02  -5.783E+01  -5.317E+02  -7.010E+01  +1.010E+03
  +4.10E+04  +7.85E+05  +1.19E+05  +1.055E+02  +2.792E+02  -1.616E+02  -5.783E+01  -5.317E+02  -7.010E+01  +1.010E+03

element # = 1501     type =4-n tetrahedron
 XX         YY         ZZ         SIGXX       SIGYY       SIGZZ       TAUXY       TAUYZ       TAUZX       SIGV
  +1.86E+05  +7.29E+05  +1.71E+05  +2.700E+02  +2.362E+03  -1.939E+02  -1.356E+00  -3.628E+02  -1.494E+01  +2.441E+03
  +1.64E+05  +7.07E+05  +1.93E+05  +2.700E+02  +2.362E+03  -1.939E+02  -1.356E+00  -3.628E+02  -1.494E+01  +2.441E+03
  +1.64E+05  +7.29E+05  +1.93E+05  +2.700E+02  +2.362E+03  -1.939E+02  -1.356E+00  -3.628E+02  -1.494E+01  +2.441E+03
  +1.86E+05  +7.18E+05  +1.93E+05  +2.700E+02  +2.362E+03  -1.939E+02  -1.356E+00  -3.628E+02  -1.494E+01  +2.441E+03

element # = 1502     type =4-n tetrahedron
 XX         YY         ZZ         SIGXX       SIGYY       SIGZZ       TAUXY       TAUYZ       TAUZX       SIGV
  +5.06E+04  +6.63E+05  +2.37E+04  -3.814E+02  -3.548E+03  +4.804E+01  +8.226E+01  -5.666E+02  +2.684E+02  +3.574E+03
  +5.54E+04  +6.77E+05  +5.60E+03  -3.814E+02  -3.548E+03  +4.804E+01  +8.226E+01  -5.666E+02  +2.684E+02  +3.574E+03
  +5.54E+04  +6.55E+05  +5.60E+03  -3.814E+02  -3.548E+03  +4.804E+01  +8.226E+01  -5.666E+02  +2.684E+02  +3.574E+03
  +7.78E+04  +6.66E+05  +5.60E+03  -3.814E+02  -3.548E+03  +4.804E+01  +8.226E+01  -5.666E+02  +2.684E+02  +3.574E+03

element # = 1503     type =4-n tetrahedron
 XX         YY         ZZ         SIGXX       SIGYY       SIGZZ       TAUXY       TAUYZ       TAUZX       SIGV
  +1.60E+05  +8.69E+05  +1.64E+05  +1.806E+00  +5.360E+02  -4.542E+02  +6.674E+01  -2.706E+02  -6.737E+00  +9.849E+02
  +1.85E+05  +8.56E+05  +1.86E+05  +1.806E+00  +5.360E+02  -4.542E+02  +6.674E+01  -2.706E+02  -6.737E+00  +9.849E+02
  +1.85E+05  +8.46E+05  +1.64E+05  +1.806E+00  +5.360E+02  -4.542E+02  +6.674E+01  -2.706E+02  -6.737E+00  +9.849E+02
  +1.63E+05  +8.46E+05  +1.86E+05  +1.806E+00  +5.360E+02  -4.542E+02  +6.674E+01  -2.706E+02  -6.737E+00  +9.849E+02

element # = 1504     type =4-n tetrahedron
 XX         YY         ZZ         SIGXX       SIGYY       SIGZZ       TAUXY       TAUYZ       TAUZX       SIGV
  +1.02E+04  +8.92E+05  +4.02E+04  +4.336E+01  -1.907E+02  -8.538E+00  +2.540E+01  -1.801E+02  -2.406E+00  +3.802E+02
  +2.50E+04  +9.09E+05  +3.35E+04  +4.336E+01  -1.907E+02  -8.538E+00  +2.540E+01  -1.801E+02  -2.406E+00  +3.802E+02
  +1.02E+04  +9.01E+05  +1.77E+04  +4.336E+01  -1.907E+02  -8.538E+00  +2.540E+01  -1.801E+02  -2.406E+00  +3.802E+02
  +2.85E+04  +8.86E+05  +3.64E+04  +4.336E+01  -1.907E+02  -8.538E+00  +2.540E+01  -1.801E+02  -2.406E+00  +3.802E+02

element # = 1505     type =4-n tetrahedron
 XX         YY         ZZ         SIGXX       SIGYY       SIGZZ       TAUXY       TAUYZ       TAUZX       SIGV
  +1.85E+05  +7.92E+04  +1.87E+05  +5.783E+03  +2.721E+04  +8.968E+02  -1.400E+03  -2.243E+03  -1.352E+03  +2.478E+04
  +1.58E+05  +6.23E+04  +1.69E+05  +5.783E+03  +2.721E+04  +8.968E+02  -1.400E+03  -2.243E+03  -1.352E+03  +2.478E+04
  +1.61E+05  +6.16E+04  +1.87E+05  +5.783E+03  +2.721E+04  +8.968E+02  -1.400E+03  -2.243E+03  -1.352E+03  +2.478E+04
  +1.85E+05  +6.16E+04  +1.64E+05  +5.783E+03  +2.721E+04  +8.968E+02  -1.400E+03  -2.243E+03  -1.352E+03  +2.478E+04

element # = 1506     type =4-n tetrahedron
 XX         YY         ZZ         SIGXX       SIGYY       SIGZZ       TAUXY       TAUYZ       TAUZX       SIGV
  +1.10E+05  +9.39E+05  +1.74E+05  -3.634E+01  +1.237E+02  -4.990E+02  +1.884E+00  -1.318E+02  +5.529E+00  +6.049E+02
  +1.31E+05  +9.09E+05  +1.67E+05  -3.634E+01  +1.237E+02  -4.990E+02  +1.884E+00  -1.318E+02  +5.529E+00  +6.049E+02
  +1.12E+05  +9.19E+05  +1.89E+05  -3.634E+01  +1.237E+02  -4.990E+02  +1.884E+00  -1.318E+02  +5.529E+00  +6.049E+02
  +1.33E+05  +9.34E+05  +1.89E+05  -3.634E+01  +1.237E+02  -4.990E+02  +1.884E+00  -1.318E+02  +5.529E+00  +6.049E+02

element # = 1507     type =4-n tetrahedron
 XX         YY         ZZ         SIGXX       SIGYY       SIGZZ       TAUXY       TAUYZ       TAUZX       SIGV
  +1.83E+05  +4.81E+05  +8.17E+04  -4.272E+02  -3.684E+03  -4.864E+02  -1.711E+02  -1.626E+03  -1.441E+02  +4.302E+03
  +1.58E+05  +4.71E+05  +6.12E+04  -4.272E+02  -3.684E+03  -4.864E+02  -1.711E+02  -1.626E+03  -1.441E+02  +4.302E+03
  +1.83E+05  +4.92E+05  +5.93E+04  -4.272E+02  -3.684E+03  -4.864E+02  -1.711E+02  -1.626E+03  -1.441E+02  +4.302E+03
  +1.56E+05  +4.98E+05  +6.54E+04  -4.272E+02  -3.684E+03  -4.864E+02  -1.711E+02  -1.626E+03  -1.441E+02  +4.302E+03

element # = 1508     type =4-n tetrahedron
 XX         YY         ZZ         SIGXX       SIGYY       SIGZZ       TAUXY       TAUYZ       TAUZX       SIGV
  +1.58E+05  +4.15E+04  +1.56E+05  +4.006E+03  +1.596E+04  +7.340E+02  -1.746E+03  -3.236E+03  +2.164E+03  +1.572E+04
  +1.85E+05  +1.57E+04  +1.57E+05  +4.006E+03  +1.596E+04  +7.340E+02  -1.746E+03  -3.236E+03  +2.164E+03  +1.572E+04
  +1.85E+05  +4.07E+04  +1.51E+05  +4.006E+03  +1.596E+04  +7.340E+02  -1.746E+03  -3.236E+03  +2.164E+03  +1.572E+04
  +1.62E+05  +1.57E+04  +1.51E+05  +4.006E+03  +1.596E+04  +7.340E+02  -1.746E+03  -3.236E+03  +2.164E+03  +1.572E+04

element # = 1509     type =4-n tetrahedron
 XX         YY         ZZ         SIGXX       SIGYY       SIGZZ       TAUXY       TAUYZ       TAUZX       SIGV
  +1.66E+05  +4.63E+05  +5.94E+04  -8.332E+02  -5.325E+03  -8.728E+02  +1.418E+02  -1.700E+03  -3.333E+02  +5.391E+03
  +1.92E+05  +4.73E+05  +7.98E+04  -8.332E+02  -5.325E+03  -8.728E+02  +1.418E+02  -1.700E+03  -3.333E+02  +5.391E+03
  +1.92E+05  +4.84E+05  +5.75E+04  -8.332E+02  -5.325E+03  -8.728E+02  +1.418E+02  -1.700E+03  -3.333E+02  +5.391E+03
  +1.92E+05  +4.62E+05  +5.75E+04  -8.332E+02  -5.325E+03  -8.728E+02  +1.418E+02  -1.700E+03  -3.333E+02  +5.391E+03

element # = 1510     type =4-n tetrahedron
 XX         YY         ZZ         SIGXX       SIGYY       SIGZZ       TAUXY       TAUYZ       TAUZX       SIGV
  +8.91E+04  +3.72E+04  +3.11E+04  -7.320E+03  -2.129E+04  -5.589E+03  -5.623E+03  -3.520E+03  -2.595E+03  +1.935E+04
  +9.53E+04  +3.14E+04  +1.19E+04  -7.320E+03  -2.129E+04  -5.589E+03  -5.623E+03  -3.520E+03  -2.595E+03  +1.935E+04
  +8.64E+04  +1.31E+04  +1.19E+04  -7.320E+03  -2.129E+04  -5.589E+03  -5.623E+03  -3.520E+03  -2.595E+03  +1.935E+04
  +9.53E+04  +1.31E+04  +3.10E+04  -7.320E+03  -2.129E+04  -5.589E+03  -5.623E+03  -3.520E+03  -2.595E+03  +1.935E+04

element # = 1511     type =4-n tetrahedron
 XX         YY         ZZ         SIGXX       SIGYY       SIGZZ       TAUXY       TAUYZ       TAUZX       SIGV
  +9.44E+04  +9.11E+05  +6.31E+04  -3.577E+00  -1.466E+02  -1.524E+02  +2.498E+01  -2.664E+02  -1.237E+01  +4.863E+02
  +1.19E+05  +8.76E+05  +6.98E+04  -3.577E+00  -1.466E+02  -1.524E+02  +2.498E+01  -2.664E+02  -1.237E+01  +4.863E+02
  +9.29E+04  +8.84E+05  +7.76E+04  -3.577E+00  -1.466E+02  -1.524E+02  +2.498E+01  -2.664E+02  -1.237E+01  +4.863E+02
  +1.09E+05  +9.17E+05  +9.35E+04  -3.577E+00  -1.466E+02  -1.524E+02  +2.498E+01  -2.664E+02  -1.237E+01  +4.863E+02

element # = 1512     type =4-n tetrahedron
 XX         YY         ZZ         SIGXX       SIGYY       SIGZZ       TAUXY       TAUYZ       TAUZX       SIGV
  +4.31E+04  +5.01E+05  +1.83E+05  +1.277E+02  +4.759E+03  -4.874E+02  +4.504E+01  -1.121E+03  -3.442E+02  +5.367E+03
  +2.07E+04  +5.00E+05  +1.61E+05  +1.277E+02  +4.759E+03  -4.874E+02  +4.504E+01  -1.121E+03  -3.442E+02  +5.367E+03
  +4.75E+04  +4.92E+05  +1.65E+05  +1.277E+02  +4.759E+03  -4.874E+02  +4.504E+01  -1.121E+03  -3.442E+02  +5.367E+03
  +3.85E+04  +5.13E+05  +1.68E+05  +1.277E+02  +4.759E+03  -4.874E+02  +4.504E+01  -1.121E+03  -3.442E+02  +5.367E+03

element # = 1513     type =4-n tetrahedron
 XX         YY         ZZ         SIGXX       SIGYY       SIGZZ       TAUXY       TAUYZ       TAUZX       SIGV
  +6.57E+04  +4.08E+05  +1.59E+05  -9.725E-01  +5.658E+03  -3.203E+02  +9.556E+01  -2.278E+02  -1.417E+02  +5.846E+03
  +6.14E+04  +4.29E+05  +1.61E+05  -9.725E-01  +5.658E+03  -3.203E+02  +9.556E+01  -2.278E+02  -1.417E+02  +5.846E+03
  +8.80E+04  +4.35E+05  +1.41E+05  -9.725E-01  +5.658E+03  -3.203E+02  +9.556E+01  -2.278E+02  -1.417E+02  +5.846E+03
  +8.64E+04  +4.26E+05  +1.78E+05  -9.725E-01  +5.658E+03  -3.203E+02  +9.556E+01  -2.278E+02  -1.417E+02  +5.846E+03

element # = 1514     type =4-n tetrahedron
 XX         YY         ZZ         SIGXX       SIGYY       SIGZZ       TAUXY       TAUYZ       TAUZX       SIGV
  +1.11E+05  +1.24E+05  +1.59E+05  +3.069E+03  +2.575E+04  -6.854E+02  -1.870E+03  -8.104E+02  -2.705E+02  +2.503E+04
  +9.99E+04  +1.03E+05  +1.87E+05  +3.069E+03  +2.575E+04  -6.854E+02  -1.870E+03  -8.104E+02  -2.705E+02  +2.503E+04
  +8.78E+04  +1.09E+05  +1.73E+05  +3.069E+03  +2.575E+04  -6.854E+02  -1.870E+03  -8.104E+02  -2.705E+02  +2.503E+04
  +9.99E+04  +1.26E+05  +1.87E+05  +3.069E+03  +2.575E+04  -6.854E+02  -1.870E+03  -8.104E+02  -2.705E+02  +2.503E+04

element # = 1515     type =4-n tetrahedron
 XX         YY         ZZ         SIGXX       SIGYY       SIGZZ       TAUXY       TAUYZ       TAUZX       SIGV
  +3.12E+04  +9.30E+05  +4.97E+04  +2.662E+01  +5.474E+00  -5.391E+01  -9.001E+00  -2.013E+02  +7.595E+00  +3.566E+02
  +3.66E+04  +9.46E+05  +6.84E+04  +2.662E+01  +5.474E+00  -5.391E+01  -9.001E+00  -2.013E+02  +7.595E+00  +3.566E+02
  +3.45E+04  +9.25E+05  +7.01E+04  +2.662E+01  +5.474E+00  -5.391E+01  -9.001E+00  -2.013E+02  +7.595E+00  +3.566E+02
  +1.64E+04  +9.39E+05  +5.74E+04  +2.662E+01  +5.474E+00  -5.391E+01  -9.001E+00  -2.013E+02  +7.595E+00  +3.566E+02

element # = 1516     type =4-n tetrahedron
 XX         YY         ZZ         SIGXX       SIGYY       SIGZZ       TAUXY       TAUYZ       TAUZX       SIGV
  +1.93E+05  +8.45E+05  +6.94E+03  -6.809E+01  -7.520E+02  -5.017E+01  -8.033E+01  -2.902E+02  -1.247E+01  +8.676E+02
  +1.93E+05  +8.35E+05  +2.94E+04  -6.809E+01  -7.520E+02  -5.017E+01  -8.033E+01  -2.902E+02  -1.247E+01  +8.676E+02
  +1.93E+05  +8.23E+05  +6.94E+03  -6.809E+01  -7.520E+02  -5.017E+01  -8.033E+01  -2.902E+02  -1.247E+01  +8.676E+02
  +1.71E+05  +8.35E+05  +6.94E+03  -6.809E+01  -7.520E+02  -5.017E+01  -8.033E+01  -2.902E+02  -1.247E+01  +8.676E+02

element # = 1517     type =4-n tetrahedron
 XX         YY         ZZ         SIGXX       SIGYY       SIGZZ       TAUXY       TAUYZ       TAUZX       SIGV
  +1.93E+05  +4.20E+05  +1.43E+05  +2.274E+02  +4.764E+03  -7.221E+01  -2.031E+02  -1.961E+03  -5.114E+02  +5.872E+03
  +1.71E+05  +4.39E+05  +1.44E+05  +2.274E+02  +4.764E+03  -7.221E+01  -2.031E+02  -1.961E+03  -5.114E+02  +5.872E+03
  +1.93E+05  +4.31E+05  +1.21E+05  +2.274E+02  +4.764E+03  -7.221E+01  -2.031E+02  -1.961E+03  -5.114E+02  +5.872E+03
  +1.93E+05  +4.42E+05  +1.43E+05  +2.274E+02  +4.764E+03  -7.221E+01  -2.031E+02  -1.961E+03  -5.114E+02  +5.872E+03

element # = 1518     type =4-n tetrahedron
 XX         YY         ZZ         SIGXX       SIGYY       SIGZZ       TAUXY       TAUYZ       TAUZX       SIGV
  +4.27E+04  +9.27E+05  +4.90E+04  +8.340E+01  +2.878E+01  -2.218E+01  +3.729E-01  -2.016E+02  -1.098E+01  +3.615E+02
  +4.80E+04  +9.43E+05  +6.77E+04  +8.340E+01  +2.878E+01  -2.218E+01  +3.729E-01  -2.016E+02  -1.098E+01  +3.615E+02
  +6.49E+04  +9.29E+05  +5.43E+04  +8.340E+01  +2.878E+01  -2.218E+01  +3.729E-01  -2.016E+02  -1.098E+01  +3.615E+02
  +4.60E+04  +9.23E+05  +6.94E+04  +8.340E+01  +2.878E+01  -2.218E+01  +3.729E-01  -2.016E+02  -1.098E+01  +3.615E+02

element # = 1519     type =4-n tetrahedron
 XX         YY         ZZ         SIGXX       SIGYY       SIGZZ       TAUXY       TAUYZ       TAUZX       SIGV
  +1.18E+04  +9.51E+05  +8.76E+04  +2.078E+01  -3.081E+01  -1.519E+02  -3.476E+00  -2.202E+02  +4.652E+00  +4.113E+02
  +3.00E+04  +9.30E+05  +7.90E+04  +2.078E+01  -3.081E+01  -1.519E+02  -3.476E+00  -2.202E+02  +4.652E+00  +4.113E+02
  +3.20E+04  +9.51E+05  +7.74E+04  +2.078E+01  -3.081E+01  -1.519E+02  -3.476E+00  -2.202E+02  +4.652E+00  +4.113E+02
  +1.18E+04  +9.44E+05  +6.63E+04  +2.078E+01  -3.081E+01  -1.519E+02  -3.476E+00  -2.202E+02  +4.652E+00  +4.113E+02

element # = 1520     type =4-n tetrahedron
 XX         YY         ZZ         SIGXX       SIGYY       SIGZZ       TAUXY       TAUYZ       TAUZX       SIGV
  +2.50E+04  +9.94E+05  +1.00E+05  -5.791E+00  -4.174E+00  -2.702E+02  +3.250E-01  -1.086E+02  -2.256E+01  +3.275E+02
  +5.91E+03  +9.94E+05  +9.11E+04  -5.791E+00  -4.174E+00  -2.702E+02  +3.250E-01  -1.086E+02  -2.256E+01  +3.275E+02
  +5.91E+03  +9.94E+05  +1.09E+05  -5.791E+00  -4.174E+00  -2.702E+02  +3.250E-01  -1.086E+02  -2.256E+01  +3.275E+02
  +5.91E+03  +9.76E+05  +1.00E+05  -5.791E+00  -4.174E+00  -2.702E+02  +3.250E-01  -1.086E+02  -2.256E+01  +3.275E+02

element # = 1521     type =4-n tetrahedron
 XX         YY         ZZ         SIGXX       SIGYY       SIGZZ       TAUXY       TAUYZ       TAUZX       SIGV
  +4.47E+04  +8.98E+05  +1.18E+05  +5.086E+01  +1.377E+02  -1.759E+02  -1.405E+01  -2.938E+02  -6.449E+00  +5.817E+02
  +3.91E+04  +9.31E+05  +1.16E+05  +5.086E+01  +1.377E+02  -1.759E+02  -1.405E+01  -2.938E+02  -6.449E+00  +5.817E+02
  +1.95E+04  +9.13E+05  +1.05E+05  +5.086E+01  +1.377E+02  -1.759E+02  -1.405E+01  -2.938E+02  -6.449E+00  +5.817E+02
  +3.76E+04  +9.13E+05  +9.63E+04  +5.086E+01  +1.377E+02  -1.759E+02  -1.405E+01  -2.938E+02  -6.449E+00  +5.817E+02

element # = 1522     type =4-n tetrahedron
 XX         YY         ZZ         SIGXX       SIGYY       SIGZZ       TAUXY       TAUYZ       TAUZX       SIGV
  +1.71E+05  +4.49E+05  +1.38E+05  -1.643E+03  -7.130E+02  -1.007E+03  -7.930E+01  -2.133E+03  -2.941E+02  +3.821E+03
  +1.93E+05  +4.62E+05  +1.14E+05  -1.643E+03  -7.130E+02  -1.007E+03  -7.930E+01  -2.133E+03  -2.941E+02  +3.821E+03
  +1.93E+05  +4.41E+05  +1.14E+05  -1.643E+03  -7.130E+02  -1.007E+03  -7.930E+01  -2.133E+03  -2.941E+02  +3.821E+03
  +1.93E+05  +4.51E+05  +1.37E+05  -1.643E+03  -7.130E+02  -1.007E+03  -7.930E+01  -2.133E+03  -2.941E+02  +3.821E+03

element # = 1523     type =4-n tetrahedron
 XX         YY         ZZ         SIGXX       SIGYY       SIGZZ       TAUXY       TAUYZ       TAUZX       SIGV
  +1.91E+05  +5.22E+05  +8.11E+04  -9.147E+02  -4.364E+03  -9.647E+02  +3.026E+01  -1.496E+03  -6.017E+02  +4.419E+03
  +1.64E+05  +5.18E+05  +6.48E+04  -9.147E+02  -4.364E+03  -9.647E+02  +3.026E+01  -1.496E+03  -6.017E+02  +4.419E+03
  +1.91E+05  +5.12E+05  +5.88E+04  -9.147E+02  -4.364E+03  -9.647E+02  +3.026E+01  -1.496E+03  -6.017E+02  +4.419E+03
  +1.91E+05  +5.33E+05  +5.88E+04  -9.147E+02  -4.364E+03  -9.647E+02  +3.026E+01  -1.496E+03  -6.017E+02  +4.419E+03

element # = 1524     type =4-n tetrahedron
 XX         YY         ZZ         SIGXX       SIGYY       SIGZZ       TAUXY       TAUYZ       TAUZX       SIGV
  +5.86E+04  +4.86E+05  +8.76E+03  -8.602E+01  -7.559E+03  -8.402E+01  +2.340E+02  -1.261E+03  +4.184E+02  +7.831E+03
  +6.40E+04  +4.72E+05  +3.71E+04  -8.602E+01  -7.559E+03  -8.402E+01  +2.340E+02  -1.261E+03  +4.184E+02  +7.831E+03
  +8.09E+04  +4.75E+05  +8.76E+03  -8.602E+01  -7.559E+03  -8.402E+01  +2.340E+02  -1.261E+03  +4.184E+02  +7.831E+03
  +5.86E+04  +4.65E+05  +8.76E+03  -8.602E+01  -7.559E+03  -8.402E+01  +2.340E+02  -1.261E+03  +4.184E+02  +7.831E+03

element # = 1525     type =4-n tetrahedron
 XX         YY         ZZ         SIGXX       SIGYY       SIGZZ       TAUXY       TAUYZ       TAUZX       SIGV
  +1.41E+05  +1.21E+05  +1.76E+04  +1.844E+03  -9.202E+03  +8.300E+02  +1.474E+03  -2.356E+03  -3.344E+02  +1.163E+04
  +1.36E+05  +1.48E+05  +4.70E+04  +1.844E+03  -9.202E+03  +8.300E+02  +1.474E+03  -2.356E+03  -3.344E+02  +1.163E+04
  +1.38E+05  +1.11E+05  +4.52E+04  +1.844E+03  -9.202E+03  +8.300E+02  +1.474E+03  -2.356E+03  -3.344E+02  +1.163E+04
  +1.18E+05  +1.33E+05  +1.76E+04  +1.844E+03  -9.202E+03  +8.300E+02  +1.474E+03  -2.356E+03  -3.344E+02  +1.163E+04

element # = 1526     type =4-n tetrahedron
 XX         YY         ZZ         SIGXX       SIGYY       SIGZZ       TAUXY       TAUYZ       TAUZX       SIGV
  +2.97E+04  +8.60E+05  +5.75E+04  +1.632E+01  -3.811E+02  -2.264E+02  -4.508E+01  -4.996E+02  +2.871E+01  +9.369E+02
  +1.14E+04  +8.43E+05  +6.12E+04  +1.632E+01  -3.811E+02  -2.264E+02  -4.508E+01  -4.996E+02  +2.871E+01  +9.369E+02
  +1.14E+04  +8.55E+05  +8.34E+04  +1.632E+01  -3.811E+02  -2.264E+02  -4.508E+01  -4.996E+02  +2.871E+01  +9.369E+02
  +3.02E+04  +8.39E+05  +7.80E+04  +1.632E+01  -3.811E+02  -2.264E+02  -4.508E+01  -4.996E+02  +2.871E+01  +9.369E+02

element # = 1527     type =4-n tetrahedron
 XX         YY         ZZ         SIGXX       SIGYY       SIGZZ       TAUXY       TAUYZ       TAUZX       SIGV
  +1.10E+05  +3.78E+05  +7.63E+04  -5.556E+02  -5.197E+03  -1.103E+03  -1.397E+02  -2.775E+03  -3.517E+02  +6.545E+03
  +7.70E+04  +3.56E+05  +8.46E+04  -5.556E+02  -5.197E+03  -1.103E+03  -1.397E+02  -2.775E+03  -3.517E+02  +6.545E+03
  +9.62E+04  +3.57E+05  +1.05E+05  -5.556E+02  -5.197E+03  -1.103E+03  -1.397E+02  -2.775E+03  -3.517E+02  +6.545E+03
  +1.10E+05  +3.50E+05  +7.28E+04  -5.556E+02  -5.197E+03  -1.103E+03  -1.397E+02  -2.775E+03  -3.517E+02  +6.545E+03

element # = 1528     type =4-n tetrahedron
 XX         YY         ZZ         SIGXX       SIGYY       SIGZZ       TAUXY       TAUYZ       TAUZX       SIGV
  +1.06E+05  +4.45E+05  +9.43E+04  -9.529E+01  -4.002E+03  -3.288E+01  +5.503E+01  -8.827E+02  +1.504E+02  +4.234E+03
  +1.23E+05  +4.47E+05  +6.59E+04  -9.529E+01  -4.002E+03  -3.288E+01  +5.503E+01  -8.827E+02  +1.504E+02  +4.234E+03
  +8.77E+04  +4.54E+05  +7.00E+04  -9.529E+01  -4.002E+03  -3.288E+01  +5.503E+01  -8.827E+02  +1.504E+02  +4.234E+03
  +1.16E+05  +4.23E+05  +7.12E+04  -9.529E+01  -4.002E+03  -3.288E+01  +5.503E+01  -8.827E+02  +1.504E+02  +4.234E+03

element # = 1529     type =4-n tetrahedron
 XX         YY         ZZ         SIGXX       SIGYY       SIGZZ       TAUXY       TAUYZ       TAUZX       SIGV
  +9.96E+04  +3.87E+05  +8.21E+04  +2.725E+02  -6.460E+02  -7.334E+01  -3.620E+02  -2.603E+03  +1.893E+02  +4.634E+03
  +6.61E+04  +3.65E+05  +9.04E+04  +2.725E+02  -6.460E+02  -7.334E+01  -3.620E+02  -2.603E+03  +1.893E+02  +4.634E+03
  +6.38E+04  +3.90E+05  +9.74E+04  +2.725E+02  -6.460E+02  -7.334E+01  -3.620E+02  -2.603E+03  +1.893E+02  +4.634E+03
  +8.53E+04  +3.67E+05  +1.10E+05  +2.725E+02  -6.460E+02  -7.334E+01  -3.620E+02  -2.603E+03  +1.893E+02  +4.634E+03

element # = 1530     type =4-n tetrahedron
 XX         YY         ZZ         SIGXX       SIGYY       SIGZZ       TAUXY       TAUYZ       TAUZX       SIGV
  +1.06E+05  +3.79E+05  +1.22E+05  -7.879E+01  +2.827E+03  +7.948E+01  +3.997E+02  -2.112E+03  +5.326E+02  +4.767E+03
  +1.20E+05  +3.99E+05  +9.32E+04  -7.879E+01  +2.827E+03  +7.948E+01  +3.997E+02  -2.112E+03  +5.326E+02  +4.767E+03
  +1.26E+05  +3.97E+05  +1.30E+05  -7.879E+01  +2.827E+03  +7.948E+01  +3.997E+02  -2.112E+03  +5.326E+02  +4.767E+03
  +1.10E+05  +4.21E+05  +1.16E+05  -7.879E+01  +2.827E+03  +7.948E+01  +3.997E+02  -2.112E+03  +5.326E+02  +4.767E+03

element # = 1531     type =4-n tetrahedron
 XX         YY         ZZ         SIGXX       SIGYY       SIGZZ       TAUXY       TAUYZ       TAUZX       SIGV
  +5.95E+04  +4.12E+05  +8.22E+04  -3.427E+02  -4.197E+03  -1.137E+02  +6.586E+01  -3.017E+03  +6.673E+02  +6.667E+03
  +9.53E+04  +4.09E+05  +6.69E+04  -3.427E+02  -4.197E+03  -1.137E+02  +6.586E+01  -3.017E+03  +6.673E+02  +6.667E+03
  +6.70E+04  +4.40E+05  +6.58E+04  -3.427E+02  -4.197E+03  -1.137E+02  +6.586E+01  -3.017E+03  +6.673E+02  +6.667E+03
  +6.20E+04  +4.08E+05  +5.57E+04  -3.427E+02  -4.197E+03  -1.137E+02  +6.586E+01  -3.017E+03  +6.673E+02  +6.667E+03

element # = 1532     type =4-n tetrahedron
 XX         YY         ZZ         SIGXX       SIGYY       SIGZZ       TAUXY       TAUYZ       TAUZX       SIGV
  +1.91E+05  +5.12E+05  +8.80E+04  +9.904E+02  +7.581E+02  +3.905E+02  +6.583E+01  -1.649E+03  -4.716E+02  +3.018E+03
  +1.91E+05  +4.91E+05  +8.80E+04  +9.904E+02  +7.581E+02  +3.905E+02  +6.583E+01  -1.649E+03  -4.716E+02  +3.018E+03
  +1.91E+05  +5.02E+05  +6.57E+04  +9.904E+02  +7.581E+02  +3.905E+02  +6.583E+01  -1.649E+03  -4.716E+02  +3.018E+03
  +1.64E+05  +5.08E+05  +7.17E+04  +9.904E+02  +7.581E+02  +3.905E+02  +6.583E+01  -1.649E+03  -4.716E+02  +3.018E+03

element # = 1533     type =4-n tetrahedron
 XX         YY         ZZ         SIGXX       SIGYY       SIGZZ       TAUXY       TAUYZ       TAUZX       SIGV
  +3.52E+04  +7.38E+04  +5.73E+04  -2.233E+03  -2.031E+04  -2.853E+03  +3.650E+02  -1.022E+03  -9.540E+02  +1.795E+04
  +1.66E+04  +6.16E+04  +4.93E+04  -2.233E+03  -2.031E+04  -2.853E+03  +3.650E+02  -1.022E+03  -9.540E+02  +1.795E+04
  +3.42E+04  +5.29E+04  +4.10E+04  -2.233E+03  -2.031E+04  -2.853E+03  +3.650E+02  -1.022E+03  -9.540E+02  +1.795E+04
  +3.45E+04  +7.26E+04  +3.96E+04  -2.233E+03  -2.031E+04  -2.853E+03  +3.650E+02  -1.022E+03  -9.540E+02  +1.795E+04

element # = 1534     type =4-n tetrahedron
 XX         YY         ZZ         SIGXX       SIGYY       SIGZZ       TAUXY       TAUYZ       TAUZX       SIGV
  +2.16E+04  +3.79E+04  +7.77E+04  -3.135E+02  -5.774E+03  +6.300E+02  -1.109E+03  +1.249E+03  +2.469E+03  +7.907E+03
  +5.10E+03  +3.83E+04  +8.76E+04  -3.135E+02  -5.774E+03  +6.300E+02  -1.109E+03  +1.249E+03  +2.469E+03  +7.907E+03
  +5.10E+03  +1.94E+04  +7.87E+04  -3.135E+02  -5.774E+03  +6.300E+02  -1.109E+03  +1.249E+03  +2.469E+03  +7.907E+03
  +5.10E+03  +4.49E+04  +6.63E+04  -3.135E+02  -5.774E+03  +6.300E+02  -1.109E+03  +1.249E+03  +2.469E+03  +7.907E+03

element # = 1535     type =4-n tetrahedron
 XX         YY         ZZ         SIGXX       SIGYY       SIGZZ       TAUXY       TAUYZ       TAUZX       SIGV
  +1.30E+05  +6.60E+04  +6.31E+04  -1.024E+03  -1.009E+04  +1.423E+03  +1.008E+03  -2.481E+03  -1.052E+03  +1.163E+04
  +1.04E+05  +5.03E+04  +5.47E+04  -1.024E+03  -1.009E+04  +1.423E+03  +1.008E+03  -2.481E+03  -1.052E+03  +1.163E+04
  +1.10E+05  +4.71E+04  +8.02E+04  -1.024E+03  -1.009E+04  +1.423E+03  +1.008E+03  -2.481E+03  -1.052E+03  +1.163E+04
  +1.32E+05  +2.62E+04  +5.85E+04  -1.024E+03  -1.009E+04  +1.423E+03  +1.008E+03  -2.481E+03  -1.052E+03  +1.163E+04

element # = 1536     type =4-n tetrahedron
 XX         YY         ZZ         SIGXX       SIGYY       SIGZZ       TAUXY       TAUYZ       TAUZX       SIGV
  +5.68E+04  +6.50E+04  +1.85E+05  -1.044E+03  +1.582E+04  -5.840E+03  +4.675E+02  -3.852E+03  -8.119E+02  +2.087E+04
  +6.61E+04  +8.56E+04  +1.71E+05  -1.044E+03  +1.582E+04  -5.840E+03  +4.675E+02  -3.852E+03  -8.119E+02  +2.087E+04
  +4.95E+04  +7.56E+04  +1.69E+05  -1.044E+03  +1.582E+04  -5.840E+03  +4.675E+02  -3.852E+03  -8.119E+02  +2.087E+04
  +6.91E+04  +6.36E+04  +1.66E+05  -1.044E+03  +1.582E+04  -5.840E+03  +4.675E+02  -3.852E+03  -8.119E+02  +2.087E+04

element # = 1537     type =4-n tetrahedron
 XX         YY         ZZ         SIGXX       SIGYY       SIGZZ       TAUXY       TAUYZ       TAUZX       SIGV
  +8.93E+04  +1.92E+05  +6.68E+04  +1.073E+03  -7.219E+03  +5.214E+03  -5.809E+02  -3.440E+03  +1.978E+03  +1.298E+04
  +1.11E+05  +1.73E+05  +6.93E+04  +1.073E+03  -7.219E+03  +5.214E+03  -5.809E+02  -3.440E+03  +1.978E+03  +1.298E+04
  +8.10E+04  +1.54E+05  +6.54E+04  +1.073E+03  -7.219E+03  +5.214E+03  -5.809E+02  -3.440E+03  +1.978E+03  +1.298E+04
  +7.16E+04  +1.74E+05  +8.75E+04  +1.073E+03  -7.219E+03  +5.214E+03  -5.809E+02  -3.440E+03  +1.978E+03  +1.298E+04

element # = 1538     type =4-n tetrahedron
 XX         YY         ZZ         SIGXX       SIGYY       SIGZZ       TAUXY       TAUYZ       TAUZX       SIGV
  +2.67E+04  +9.28E+05  +2.07E+04  -2.494E+01  -1.768E+02  -7.733E+01  +1.302E+01  -1.124E+02  +1.113E-01  +2.372E+02
  +1.18E+04  +9.19E+05  +4.88E+03  -2.494E+01  -1.768E+02  -7.733E+01  +1.302E+01  -1.124E+02  +1.113E-01  +2.372E+02
  +3.53E+04  +9.37E+05  +4.88E+03  -2.494E+01  -1.768E+02  -7.733E+01  +1.302E+01  -1.124E+02  +1.113E-01  +2.372E+02
  +1.18E+04  +9.41E+05  +4.88E+03  -2.494E+01  -1.768E+02  -7.733E+01  +1.302E+01  -1.124E+02  +1.113E-01  +2.372E+02

element # = 1539     type =4-n tetrahedron
 XX         YY         ZZ         SIGXX       SIGYY       SIGZZ       TAUXY       TAUYZ       TAUZX       SIGV
  +1.88E+04  +9.10E+05  +4.88E+03  -5.217E+00  -2.032E+02  -7.462E+01  +8.818E+00  -1.045E+02  -9.975E+00  +2.521E+02
  +3.36E+04  +9.19E+05  +2.07E+04  -5.217E+00  -2.032E+02  -7.462E+01  +8.818E+00  -1.045E+02  -9.975E+00  +2.521E+02
  +4.23E+04  +9.28E+05  +4.88E+03  -5.217E+00  -2.032E+02  -7.462E+01  +8.818E+00  -1.045E+02  -9.975E+00  +2.521E+02
  +4.14E+04  +9.02E+05  +4.88E+03  -5.217E+00  -2.032E+02  -7.462E+01  +8.818E+00  -1.045E+02  -9.975E+00  +2.521E+02

element # = 1540     type =4-n tetrahedron
 XX         YY         ZZ         SIGXX       SIGYY       SIGZZ       TAUXY       TAUYZ       TAUZX       SIGV
  +6.92E+03  +2.25E+05  +5.24E+03  -1.067E+03  -2.051E+04  +4.739E+01  +1.651E+02  -1.596E+03  +1.235E+03  +2.033E+04
  +6.92E+03  +2.14E+05  +2.22E+04  -1.067E+03  -2.051E+04  +4.739E+01  +1.651E+02  -1.596E+03  +1.235E+03  +2.033E+04
  +2.93E+04  +2.13E+05  +5.24E+03  -1.067E+03  -2.051E+04  +4.739E+01  +1.651E+02  -1.596E+03  +1.235E+03  +2.033E+04
  +6.92E+03  +2.03E+05  +5.24E+03  -1.067E+03  -2.051E+04  +4.739E+01  +1.651E+02  -1.596E+03  +1.235E+03  +2.033E+04

element # = 1541     type =4-n tetrahedron
 XX         YY         ZZ         SIGXX       SIGYY       SIGZZ       TAUXY       TAUYZ       TAUZX       SIGV
  +5.93E+03  +5.39E+05  +1.13E+05  -1.041E+03  -1.844E+02  -9.397E+02  +5.898E+02  -1.586E+03  +1.475E+02  +3.051E+03
  +2.51E+04  +5.60E+05  +1.34E+05  -1.041E+03  -1.844E+02  -9.397E+02  +5.898E+02  -1.586E+03  +1.475E+02  +3.051E+03
  +5.93E+03  +5.50E+05  +1.36E+05  -1.041E+03  -1.844E+02  -9.397E+02  +5.898E+02  -1.586E+03  +1.475E+02  +3.051E+03
  +5.93E+03  +5.61E+05  +1.13E+05  -1.041E+03  -1.844E+02  -9.397E+02  +5.898E+02  -1.586E+03  +1.475E+02  +3.051E+03

element # = 1542     type =4-n tetrahedron
 XX         YY         ZZ         SIGXX       SIGYY       SIGZZ       TAUXY       TAUYZ       TAUZX       SIGV
  +1.71E+05  +6.26E+05  +1.15E+05  +3.540E+02  +1.599E+03  -3.724E+02  +2.612E+00  -1.589E+03  -1.690E+02  +3.263E+03
  +1.50E+05  +6.24E+05  +1.39E+05  +3.540E+02  +1.599E+03  -3.724E+02  +2.612E+00  -1.589E+03  -1.690E+02  +3.263E+03
  +1.28E+05  +6.23E+05  +1.24E+05  +3.540E+02  +1.599E+03  -3.724E+02  +2.612E+00  -1.589E+03  -1.690E+02  +3.263E+03
  +1.43E+05  +6.51E+05  +1.31E+05  +3.540E+02  +1.599E+03  -3.724E+02  +2.612E+00  -1.589E+03  -1.690E+02  +3.263E+03

element # = 1543     type =4-n tetrahedron
 XX         YY         ZZ         SIGXX       SIGYY       SIGZZ       TAUXY       TAUYZ       TAUZX       SIGV
  +1.66E+05  +2.34E+05  +1.31E+05  +1.818E+03  +1.002E+04  +3.485E+02  +5.846E+02  -3.011E+03  -1.744E+03  +1.090E+04
  +1.92E+05  +2.36E+05  +1.18E+05  +1.818E+03  +1.002E+04  +3.485E+02  +5.846E+02  -3.011E+03  -1.744E+03  +1.090E+04
  +1.92E+05  +2.26E+05  +1.40E+05  +1.818E+03  +1.002E+04  +3.485E+02  +5.846E+02  -3.011E+03  -1.744E+03  +1.090E+04
  +1.92E+05  +2.47E+05  +1.40E+05  +1.818E+03  +1.002E+04  +3.485E+02  +5.846E+02  -3.011E+03  -1.744E+03  +1.090E+04

element # = 1544     type =4-n tetrahedron
 XX         YY         ZZ         SIGXX       SIGYY       SIGZZ       TAUXY       TAUYZ       TAUZX       SIGV
  +4.45E+04  +7.63E+05  +1.07E+05  -1.185E+02  -5.506E+02  -4.184E+02  +3.043E+01  -6.656E+02  -4.529E+01  +1.219E+03
  +2.43E+04  +7.63E+05  +9.63E+04  -1.185E+02  -5.506E+02  -4.184E+02  +3.043E+01  -6.656E+02  -4.529E+01  +1.219E+03
  +4.96E+04  +7.50E+05  +8.89E+04  -1.185E+02  -5.506E+02  -4.184E+02  +3.043E+01  -6.656E+02  -4.529E+01  +1.219E+03
  +5.77E+04  +7.76E+05  +8.10E+04  -1.185E+02  -5.506E+02  -4.184E+02  +3.043E+01  -6.656E+02  -4.529E+01  +1.219E+03

element # = 1545     type =4-n tetrahedron
 XX         YY         ZZ         SIGXX       SIGYY       SIGZZ       TAUXY       TAUYZ       TAUZX       SIGV
  +5.82E+04  +6.55E+05  +1.94E+05  +2.295E+02  +3.432E+03  -4.611E+02  -1.108E+02  -5.480E+02  +8.850E+01  +3.729E+03
  +5.82E+04  +6.77E+05  +1.94E+05  +2.295E+02  +3.432E+03  -4.611E+02  -1.108E+02  -5.480E+02  +8.850E+01  +3.729E+03
  +6.21E+04  +6.63E+05  +1.75E+05  +2.295E+02  +3.432E+03  -4.611E+02  -1.108E+02  -5.480E+02  +8.850E+01  +3.729E+03
  +8.05E+04  +6.66E+05  +1.94E+05  +2.295E+02  +3.432E+03  -4.611E+02  -1.108E+02  -5.480E+02  +8.850E+01  +3.729E+03

element # = 1546     type =4-n tetrahedron
 XX         YY         ZZ         SIGXX       SIGYY       SIGZZ       TAUXY       TAUYZ       TAUZX       SIGV
  +1.12E+05  +9.43E+05  +1.63E+05  +5.904E+01  +2.980E+02  -2.754E+02  +2.292E+01  -2.137E+02  -2.776E+01  +6.243E+02
  +1.33E+05  +9.13E+05  +1.55E+05  +5.904E+01  +2.980E+02  -2.754E+02  +2.292E+01  -2.137E+02  -2.776E+01  +6.243E+02
  +1.35E+05  +9.38E+05  +1.77E+05  +5.904E+01  +2.980E+02  -2.754E+02  +2.292E+01  -2.137E+02  -2.776E+01  +6.243E+02
  +1.21E+05  +9.37E+05  +1.39E+05  +5.904E+01  +2.980E+02  -2.754E+02  +2.292E+01  -2.137E+02  -2.776E+01  +6.243E+02

element # = 1547     type =4-n tetrahedron
 XX         YY         ZZ         SIGXX       SIGYY       SIGZZ       TAUXY       TAUYZ       TAUZX       SIGV
  +1.42E+04  +6.85E+05  +1.60E+05  -1.085E+02  +2.051E+03  -5.804E+02  +1.548E+01  -6.260E+02  +1.766E+00  +2.661E+03
  +3.36E+04  +6.93E+05  +1.65E+05  -1.085E+02  +2.051E+03  -5.804E+02  +1.548E+01  -6.260E+02  +1.766E+00  +2.661E+03
  +4.05E+04  +6.72E+05  +1.63E+05  -1.085E+02  +2.051E+03  -5.804E+02  +1.548E+01  -6.260E+02  +1.766E+00  +2.661E+03
  +1.42E+04  +6.75E+05  +1.82E+05  -1.085E+02  +2.051E+03  -5.804E+02  +1.548E+01  -6.260E+02  +1.766E+00  +2.661E+03

element # = 1548     type =4-n tetrahedron
 XX         YY         ZZ         SIGXX       SIGYY       SIGZZ       TAUXY       TAUYZ       TAUZX       SIGV
  +1.43E+05  +1.54E+05  +1.57E+05  +2.254E+03  +1.992E+04  -1.472E+03  -1.142E+03  -3.014E+03  +1.118E+03  +2.066E+04
  +1.53E+05  +1.89E+05  +1.84E+05  +2.254E+03  +1.992E+04  -1.472E+03  -1.142E+03  -3.014E+03  +1.118E+03  +2.066E+04
  +1.76E+05  +1.67E+05  +1.62E+05  +2.254E+03  +1.992E+04  -1.472E+03  -1.142E+03  -3.014E+03  +1.118E+03  +2.066E+04
  +1.53E+05  +1.67E+05  +1.84E+05  +2.254E+03  +1.992E+04  -1.472E+03  -1.142E+03  -3.014E+03  +1.118E+03  +2.066E+04

element # = 1549     type =4-n tetrahedron
 XX         YY         ZZ         SIGXX       SIGYY       SIGZZ       TAUXY       TAUYZ       TAUZX       SIGV
  +2.43E+04  +8.59E+04  +6.92E+04  -2.091E+03  -1.314E+04  -3.441E+02  -8.420E+02  -2.477E+03  +1.780E+03  +1.321E+04
  +5.73E+03  +7.36E+04  +6.11E+04  -2.091E+03  -1.314E+04  -3.441E+02  -8.420E+02  -2.477E+03  +1.780E+03  +1.321E+04
  +5.73E+03  +1.00E+05  +6.01E+04  -2.091E+03  -1.314E+04  -3.441E+02  -8.420E+02  -2.477E+03  +1.780E+03  +1.321E+04
  +5.73E+03  +8.88E+04  +8.25E+04  -2.091E+03  -1.314E+04  -3.441E+02  -8.420E+02  -2.477E+03  +1.780E+03  +1.321E+04

element # = 1550     type =4-n tetrahedron
 XX         YY         ZZ         SIGXX       SIGYY       SIGZZ       TAUXY       TAUYZ       TAUZX       SIGV
  +4.46E+04  +5.61E+04  +1.36E+05  -1.161E+03  +7.753E+03  +8.410E+02  -1.746E+03  -1.760E+03  +1.283E+03  +9.433E+03
  +4.42E+04  +7.29E+04  +1.52E+05  -1.161E+03  +7.753E+03  +8.410E+02  -1.746E+03  -1.760E+03  +1.283E+03  +9.433E+03
  +5.07E+04  +8.07E+04  +1.32E+05  -1.161E+03  +7.753E+03  +8.410E+02  -1.746E+03  -1.760E+03  +1.283E+03  +9.433E+03
  +6.39E+04  +6.10E+04  +1.49E+05  -1.161E+03  +7.753E+03  +8.410E+02  -1.746E+03  -1.760E+03  +1.283E+03  +9.433E+03

element # = 1551     type =4-n tetrahedron
 XX         YY         ZZ         SIGXX       SIGYY       SIGZZ       TAUXY       TAUYZ       TAUZX       SIGV
  +5.10E+03  +5.09E+04  +9.04E+04  +2.165E+03  +1.037E+03  -5.406E+02  +8.287E+02  -2.905E+03  +1.848E+03  +6.570E+03
  +2.16E+04  +5.04E+04  +8.05E+04  +2.165E+03  +1.037E+03  -5.406E+02  +8.287E+02  -2.905E+03  +1.848E+03  +6.570E+03
  +5.10E+03  +7.27E+04  +9.05E+04  +2.165E+03  +1.037E+03  -5.406E+02  +8.287E+02  -2.905E+03  +1.848E+03  +6.570E+03
  +5.10E+03  +5.75E+04  +6.91E+04  +2.165E+03  +1.037E+03  -5.406E+02  +8.287E+02  -2.905E+03  +1.848E+03  +6.570E+03

element # = 1552     type =4-n tetrahedron
 XX         YY         ZZ         SIGXX       SIGYY       SIGZZ       TAUXY       TAUYZ       TAUZX       SIGV
  +4.64E+04  +8.16E+05  +5.00E+04  -9.291E+01  -7.504E+02  -2.441E+02  -1.318E+01  -4.947E+02  -3.617E+01  +1.046E+03
  +2.33E+04  +7.99E+05  +5.57E+04  -9.291E+01  -7.504E+02  -2.441E+02  -1.318E+01  -4.947E+02  -3.617E+01  +1.046E+03
  +4.21E+04  +8.16E+05  +7.26E+04  -9.291E+01  -7.504E+02  -2.441E+02  -1.318E+01  -4.947E+02  -3.617E+01  +1.046E+03
  +5.67E+04  +8.01E+05  +6.27E+04  -9.291E+01  -7.504E+02  -2.441E+02  -1.318E+01  -4.947E+02  -3.617E+01  +1.046E+03

element # = 1553     type =4-n tetrahedron
 XX         YY         ZZ         SIGXX       SIGYY       SIGZZ       TAUXY       TAUYZ       TAUZX       SIGV
  +2.24E+04  +1.13E+05  +4.14E+04  -1.618E+03  -1.819E+04  +6.774E+02  +4.591E+02  +1.063E+03  -6.946E+02  +1.798E+04
  +4.50E+04  +1.12E+05  +1.90E+04  -1.618E+03  -1.819E+04  +6.774E+02  +4.591E+02  +1.063E+03  -6.946E+02  +1.798E+04
  +4.02E+04  +9.77E+04  +3.28E+04  -1.618E+03  -1.819E+04  +6.774E+02  +4.591E+02  +1.063E+03  -6.946E+02  +1.798E+04
  +5.46E+04  +1.20E+05  +4.45E+04  -1.618E+03  -1.819E+04  +6.774E+02  +4.591E+02  +1.063E+03  -6.946E+02  +1.798E+04

element # = 1554     type =4-n tetrahedron
 XX         YY         ZZ         SIGXX       SIGYY       SIGZZ       TAUXY       TAUYZ       TAUZX       SIGV
  +6.94E+03  +6.89E+05  +1.31E+05  -3.008E+02  -3.771E+02  -7.165E+02  +4.104E+01  -1.183E+03  +2.027E+02  +2.114E+03
  +6.94E+03  +7.00E+05  +1.08E+05  -3.008E+02  -3.771E+02  -7.165E+02  +4.104E+01  -1.183E+03  +2.027E+02  +2.114E+03
  +6.94E+03  +6.79E+05  +1.08E+05  -3.008E+02  -3.771E+02  -7.165E+02  +4.104E+01  -1.183E+03  +2.027E+02  +2.114E+03
  +2.94E+04  +6.85E+05  +1.14E+05  -3.008E+02  -3.771E+02  -7.165E+02  +4.104E+01  -1.183E+03  +2.027E+02  +2.114E+03

element # = 1555     type =4-n tetrahedron
 XX         YY         ZZ         SIGXX       SIGYY       SIGZZ       TAUXY       TAUYZ       TAUZX       SIGV
  +3.97E+04  +9.48E+04  +6.02E+04  +1.468E+03  -9.255E+03  +1.936E+03  +5.951E+01  -3.832E+03  -1.701E+02  +1.282E+04
  +5.33E+04  +1.16E+05  +5.42E+04  +1.468E+03  -9.255E+03  +1.936E+03  +5.951E+01  -3.832E+03  -1.701E+02  +1.282E+04
  +2.12E+04  +1.09E+05  +5.11E+04  +1.468E+03  -9.255E+03  +1.936E+03  +5.951E+01  -3.832E+03  -1.701E+02  +1.282E+04
  +3.90E+04  +9.37E+04  +4.25E+04  +1.468E+03  -9.255E+03  +1.936E+03  +5.951E+01  -3.832E+03  -1.701E+02  +1.282E+04

element # = 1556     type =4-n tetrahedron
 XX         YY         ZZ         SIGXX       SIGYY       SIGZZ       TAUXY       TAUYZ       TAUZX       SIGV
  +7.98E+04  +7.22E+05  +1.16E+04  +2.680E+02  -1.502E+03  -4.656E+00  +2.798E+02  -3.941E+02  +8.282E+00  +1.851E+03
  +6.21E+04  +7.39E+05  +2.87E+04  +2.680E+02  -1.502E+03  -4.656E+00  +2.798E+02  -3.941E+02  +8.282E+00  +1.851E+03
  +5.44E+04  +7.17E+05  +3.22E+04  +2.680E+02  -1.502E+03  -4.656E+00  +2.798E+02  -3.941E+02  +8.282E+00  +1.851E+03
  +5.74E+04  +7.33E+05  +1.16E+04  +2.680E+02  -1.502E+03  -4.656E+00  +2.798E+02  -3.941E+02  +8.282E+00  +1.851E+03

element # = 1557     type =4-n tetrahedron
 XX         YY         ZZ         SIGXX       SIGYY       SIGZZ       TAUXY       TAUYZ       TAUZX       SIGV
  +5.60E+04  +7.03E+05  +6.37E+03  +1.230E+02  -2.536E+03  +9.433E+01  +2.021E+02  -5.005E+02  +1.992E+02  +2.826E+03
  +7.83E+04  +7.13E+05  +6.37E+03  +1.230E+02  -2.536E+03  +9.433E+01  +2.021E+02  -5.005E+02  +1.992E+02  +2.826E+03
  +5.29E+04  +7.09E+05  +2.70E+04  +1.230E+02  -2.536E+03  +9.433E+01  +2.021E+02  -5.005E+02  +1.992E+02  +2.826E+03
  +5.60E+04  +7.24E+05  +6.37E+03  +1.230E+02  -2.536E+03  +9.433E+01  +2.021E+02  -5.005E+02  +1.992E+02  +2.826E+03

element # = 1558     type =4-n tetrahedron
 XX         YY         ZZ         SIGXX       SIGYY       SIGZZ       TAUXY       TAUYZ       TAUZX       SIGV
  +8.83E+04  +9.74E+05  +1.68E+05  -3.386E+01  +2.375E+01  -4.925E+02  -7.607E+00  -1.982E+01  +4.500E+00  +4.914E+02
  +9.00E+04  +9.94E+05  +1.63E+05  -3.386E+01  +2.375E+01  -4.925E+02  -7.607E+00  -1.982E+01  +4.500E+00  +4.914E+02
  +8.11E+04  +9.94E+05  +1.83E+05  -3.386E+01  +2.375E+01  -4.925E+02  -7.607E+00  -1.982E+01  +4.500E+00  +4.914E+02
  +6.84E+04  +9.94E+05  +1.59E+05  -3.386E+01  +2.375E+01  -4.925E+02  -7.607E+00  -1.982E+01  +4.500E+00  +4.914E+02

element # = 1559     type =4-n tetrahedron
 XX         YY         ZZ         SIGXX       SIGYY       SIGZZ       TAUXY       TAUYZ       TAUZX       SIGV
  +1.85E+05  +6.22E+05  +4.34E+04  +9.620E+01  -2.601E+03  +5.599E+02  +1.808E+01  -1.196E+03  +6.158E+01  +3.611E+03
  +1.58E+05  +5.96E+05  +4.45E+04  +9.620E+01  -2.601E+03  +5.599E+02  +1.808E+01  -1.196E+03  +6.158E+01  +3.611E+03
  +1.85E+05  +6.00E+05  +4.34E+04  +9.620E+01  -2.601E+03  +5.599E+02  +1.808E+01  -1.196E+03  +6.158E+01  +3.611E+03
  +1.62E+05  +6.00E+05  +2.11E+04  +9.620E+01  -2.601E+03  +5.599E+02  +1.808E+01  -1.196E+03  +6.158E+01  +3.611E+03

element # = 1560     type =4-n tetrahedron
 XX         YY         ZZ         SIGXX       SIGYY       SIGZZ       TAUXY       TAUYZ       TAUZX       SIGV
  +8.50E+04  +6.73E+05  +8.47E+04  -1.216E+02  -6.875E+02  -3.698E+02  -4.648E+02  -1.282E+03  +3.183E+01  +2.413E+03
  +9.00E+04  +6.36E+05  +1.05E+05  -1.216E+02  -6.875E+02  -3.698E+02  -4.648E+02  -1.282E+03  +3.183E+01  +2.413E+03
  +7.44E+04  +6.43E+05  +8.26E+04  -1.216E+02  -6.875E+02  -3.698E+02  -4.648E+02  -1.282E+03  +3.183E+01  +2.413E+03
  +6.60E+04  +6.66E+05  +1.02E+05  -1.216E+02  -6.875E+02  -3.698E+02  -4.648E+02  -1.282E+03  +3.183E+01  +2.413E+03

element # = 1561     type =4-n tetrahedron
 XX         YY         ZZ         SIGXX       SIGYY       SIGZZ       TAUXY       TAUYZ       TAUZX       SIGV
  +5.54E+04  +1.83E+05  +5.81E+04  -1.050E+03  -1.080E+04  -1.161E+03  +9.837E+02  -1.716E+03  -6.529E+02  +1.034E+04
  +7.61E+04  +1.95E+05  +6.41E+04  -1.050E+03  -1.080E+04  -1.161E+03  +9.837E+02  -1.716E+03  -6.529E+02  +1.034E+04
  +6.78E+04  +1.57E+05  +6.28E+04  -1.050E+03  -1.080E+04  -1.161E+03  +9.837E+02  -1.716E+03  -6.529E+02  +1.034E+04
  +5.84E+04  +1.76E+05  +8.49E+04  -1.050E+03  -1.080E+04  -1.161E+03  +9.837E+02  -1.716E+03  -6.529E+02  +1.034E+04

element # = 1562     type =4-n tetrahedron
 XX         YY         ZZ         SIGXX       SIGYY       SIGZZ       TAUXY       TAUYZ       TAUZX       SIGV
  +2.93E+04  +7.39E+05  +1.93E+05  +1.265E+02  +2.341E+03  -2.765E+02  -1.178E+02  -4.490E+02  +1.071E+02  +2.577E+03
  +6.92E+03  +7.39E+05  +1.71E+05  +1.265E+02  +2.341E+03  -2.765E+02  -1.178E+02  -4.490E+02  +1.071E+02  +2.577E+03
  +6.92E+03  +7.49E+05  +1.93E+05  +1.265E+02  +2.341E+03  -2.765E+02  -1.178E+02  -4.490E+02  +1.071E+02  +2.577E+03
  +6.92E+03  +7.28E+05  +1.93E+05  +1.265E+02  +2.341E+03  -2.765E+02  -1.178E+02  -4.490E+02  +1.071E+02  +2.577E+03

element # = 1563     type =4-n tetrahedron
 XX         YY         ZZ         SIGXX       SIGYY       SIGZZ       TAUXY       TAUYZ       TAUZX       SIGV
  +1.66E+05  +2.14E+05  +1.31E+05  +6.457E+02  +1.029E+04  +6.011E+02  +1.203E+03  -3.203E+03  +1.307E+01  +1.134E+04
  +1.92E+05  +1.83E+05  +1.40E+05  +6.457E+02  +1.029E+04  +6.011E+02  +1.203E+03  -3.203E+03  +1.307E+01  +1.134E+04
  +1.92E+05  +2.05E+05  +1.40E+05  +6.457E+02  +1.029E+04  +6.011E+02  +1.203E+03  -3.203E+03  +1.307E+01  +1.134E+04
  +1.92E+05  +1.94E+05  +1.18E+05  +6.457E+02  +1.029E+04  +6.011E+02  +1.203E+03  -3.203E+03  +1.307E+01  +1.134E+04

element # = 1564     type =4-n tetrahedron
 XX         YY         ZZ         SIGXX       SIGYY       SIGZZ       TAUXY       TAUYZ       TAUZX       SIGV
  +5.61E+04  +4.19E+05  +1.95E+05  +6.015E+02  +1.050E+04  -6.411E+02  -1.820E+02  -4.466E+02  +7.014E+02  +1.067E+04
  +5.34E+04  +4.32E+05  +1.78E+05  +6.015E+02  +1.050E+04  -6.411E+02  -1.820E+02  -4.466E+02  +7.014E+02  +1.067E+04
  +7.85E+04  +4.29E+05  +1.95E+05  +6.015E+02  +1.050E+04  -6.411E+02  -1.820E+02  -4.466E+02  +7.014E+02  +1.067E+04
  +5.61E+04  +4.40E+05  +1.95E+05  +6.015E+02  +1.050E+04  -6.411E+02  -1.820E+02  -4.466E+02  +7.014E+02  +1.067E+04

element # = 1565     type =4-n tetrahedron
 XX         YY         ZZ         SIGXX       SIGYY       SIGZZ       TAUXY       TAUYZ       TAUZX       SIGV
  +1.20E+05  +5.79E+05  +1.86E+05  -1.007E+03  +1.734E+03  -1.109E+03  +3.869E+02  -7.245E+02  +1.221E+02  +3.142E+03
  +1.40E+05  +5.75E+05  +1.60E+05  -1.007E+03  +1.734E+03  -1.109E+03  +3.869E+02  -7.245E+02  +1.221E+02  +3.142E+03
  +1.43E+05  +5.90E+05  +1.86E+05  -1.007E+03  +1.734E+03  -1.109E+03  +3.869E+02  -7.245E+02  +1.221E+02  +3.142E+03
  +1.43E+05  +5.99E+05  +1.65E+05  -1.007E+03  +1.734E+03  -1.109E+03  +3.869E+02  -7.245E+02  +1.221E+02  +3.142E+03

element # = 1566     type =4-n tetrahedron
 XX         YY         ZZ         SIGXX       SIGYY       SIGZZ       TAUXY       TAUYZ       TAUZX       SIGV
  +1.93E+05  +1.28E+05  +1.93E+05  +2.518E+03  +2.659E+04  +1.519E+03  -5.165E+02  -2.367E+03  -1.724E+03  +2.512E+04
  +1.93E+05  +1.07E+05  +1.93E+05  +2.518E+03  +2.659E+04  +1.519E+03  -5.165E+02  -2.367E+03  -1.724E+03  +2.512E+04
  +1.93E+05  +1.15E+05  +1.70E+05  +2.518E+03  +2.659E+04  +1.519E+03  -5.165E+02  -2.367E+03  -1.724E+03  +2.512E+04
  +1.70E+05  +1.15E+05  +1.93E+05  +2.518E+03  +2.659E+04  +1.519E+03  -5.165E+02  -2.367E+03  -1.724E+03  +2.512E+04

element # = 1567     type =4-n tetrahedron
 XX         YY         ZZ         SIGXX       SIGYY       SIGZZ       TAUXY       TAUYZ       TAUZX       SIGV
  +1.93E+05  +7.87E+05  +2.93E+04  -1.180E+01  -1.561E+03  -5.952E+01  -1.069E+02  -3.203E+02  -8.973E+01  +1.642E+03
  +1.93E+05  +7.97E+05  +6.92E+03  -1.180E+01  -1.561E+03  -5.952E+01  -1.069E+02  -3.203E+02  -8.973E+01  +1.642E+03
  +1.71E+05  +7.87E+05  +6.92E+03  -1.180E+01  -1.561E+03  -5.952E+01  -1.069E+02  -3.203E+02  -8.973E+01  +1.642E+03
  +1.93E+05  +7.75E+05  +6.92E+03  -1.180E+01  -1.561E+03  -5.952E+01  -1.069E+02  -3.203E+02  -8.973E+01  +1.642E+03
